# vtk DataFile Version 2.0
Simplicial Mesh Example
ASCII
DATASET UNSTRUCTURED_GRID
POINTS 280 double
0 3000 4.54747e-13
1000 3000 0
1000 2000 0
0 2000 4.54747e-13
0 3000 -1000
1000 3000 -1000
1000 2000 -1000
0 2000 -1000
2000 3000 0
2000 2000 0
2000 3000 -1000
2000 2000 -1000
3000 3000 0
3000 2000 0
3000 3000 -1000
3000 2000 -1000
1000 1000 0
0 1000 4.54747e-13
1000 1000 -1000
0 1000 -1000
2000 1000 0
2000 1000 -1000
3000 1000 0
3000 1000 -1000
1000 0 0
0 0 4.54747e-13
1000 9.4739e-14 -1000
0 1.13687e-13 -1000
2000 1.13687e-13 0
2000 4.73695e-14 -1000
3000 0 0
3000 0 -1000
1000 -1000 0
0 -1000 4.54747e-13
1000 -1000 -1000
0 -1000 -1000
2000 -1000 0
2000 -1000 -1000
3000 -1000 0
3000 -1000 -1000
1000 -2000 0
0 -2000 4.54747e-13
1000 -2000 -1000
0 -2000 -1000
2000 -2000 0
2000 -2000 -1000
3000 -2000 0
3000 -2000 -1000
1000 -3000 0
0 -3000 4.54747e-13
1000 -3000 -1000
0 -3000 -1000
2000 -3000 0
2000 -3000 -1000
3000 -3000 0
3000 -3000 -1000
0 3000 -2000
1000 3000 -2000
1000 2000 -2000
0 2000 -2000
2000 3000 -2000
2000 2000 -2000
3000 3000 -2000
3000 2000 -2000
1000 1000 -2000
0 1000 -2000
2000 1000 -2000
3000 1000 -2000
1000 2.27374e-13 -2000
0 2.27374e-13 -2000
2000 0 -2000
3000 0 -2000
1000 -1000 -2000
0 -1000 -2000
2000 -1000 -2000
3000 -1000 -2000
1000 -2000 -2000
0 -2000 -2000
2000 -2000 -2000
3000 -2000 -2000
1000 -3000 -2000
0 -3000 -2000
2000 -3000 -2000
3000 -3000 -2000
-3000 3000 -2000
-3000 3000 -1000
-3000 2000 -1000
-3000 2000 -2000
-2000 3000 -2000
-2000 3000 -1000
-2000 2000 -1000
-2000 2000 -2000
-3000 3000 0
-3000 2000 0
-2000 3000 0
-2000 2000 0
-3000 1000 -1000
-3000 1000 -2000
-2000 1000 -1000
-2000 1000 -2000
-3000 1000 0
-2000 1000 0
-3000 0 -1000
-3000 0 -2000
-2000 -9.4739e-15 -1000
-2000 0 -2000
-3000 0 0
-2000 -1.13687e-13 0
-3000 -1000 -1000
-3000 -1000 -2000
-2000 -1000 -1000
-2000 -1000 -2000
-3000 -1000 0
-2000 -1000 0
-3000 -2000 -1000
-3000 -2000 -2000
-2000 -2000 -1000
-2000 -2000 -2000
-3000 -2000 0
-2000 -2000 0
-3000 -3000 -1000
-3000 -3000 -2000
-2000 -3000 -1000
-2000 -3000 -2000
-3000 -3000 0
-2000 -3000 0
-1000 3000 -2000
-1000 3000 -1000
-1000 2000 -1000
-1000 2000 -2000
-1000 3000 0
-1000 2000 0
-1000 1000 -1000
-1000 1000 -2000
-1000 1000 0
-1000 9.4739e-14 -1000
-1000 2.27374e-13 -2000
-1000 0 0
-1000 -1000 -1000
-1000 -1000 -2000
-1000 -1000 0
-1000 -2000 -1000
-1000 -2000 -2000
-1000 -2000 0
-1000 -3000 -1000
-1000 -3000 -2000
-1000 -3000 0
3000 3000 -3000
3000 2000 -3000
2000 3000 -3000
2000 2000 -3000
3000 3000 -4000
3000 2000 -4000
2000 3000 -4000
2000 2000 -4000
3000 1000 -3000
2000 1000 -3000
3000 1000 -4000
2000 1000 -4000
3000 0 -3000
2000 -4.73695e-14 -3000
3000 0 -4000
2000 -1.13687e-13 -4000
3000 -1000 -3000
2000 -1000 -3000
3000 -1000 -4000
2000 -1000 -4000
3000 -2000 -3000
2000 -2000 -3000
3000 -2000 -4000
2000 -2000 -4000
3000 -3000 -3000
2000 -3000 -3000
3000 -3000 -4000
2000 -3000 -4000
1000 3000 -3000
1000 2000 -3000
1000 3000 -4000
1000 2000 -4000
1000 1000 -3000
1000 1000 -4000
1000 1.89478e-14 -3000
1000 0 -4000
1000 -1000 -3000
1000 -1000 -4000
1000 -2000 -3000
1000 -2000 -4000
1000 -3000 -3000
1000 -3000 -4000
0 3000 -3000
0 2000 -3000
0 3000 -4000
0 2000 -4000
0 1000 -3000
0 1000 -4000
0 -1.13687e-13 -3000
0 0 -4000
0 -1000 -3000
0 -1000 -4000
0 -2000 -3000
0 -2000 -4000
0 -3000 -3000
0 -3000 -4000
-1000 3000 -4000
-1000 2000 -4000
-1000 3000 -3000
-1000 2000 -3000
-2000 3000 -4000
-2000 2000 -4000
-2000 3000 -3000
-2000 2000 -3000
-3000 3000 -4000
-3000 2000 -4000
-3000 3000 -3000
-3000 2000 -3000
-1000 1000 -4000
-1000 1000 -3000
-2000 1000 -4000
-2000 1000 -3000
-3000 1000 -4000
-3000 1000 -3000
-1000 0 -4000
-1000 1.89478e-14 -3000
-2000 1.13687e-13 -4000
-2000 9.4739e-15 -3000
-3000 0 -4000
-3000 0 -3000
-1000 -1000 -4000
-1000 -1000 -3000
-2000 -1000 -4000
-2000 -1000 -3000
-3000 -1000 -4000
-3000 -1000 -3000
-1000 -2000 -4000
-1000 -2000 -3000
-2000 -2000 -4000
-2000 -2000 -3000
-3000 -2000 -4000
-3000 -2000 -3000
-1000 -3000 -4000
-1000 -3000 -3000
-2000 -3000 -4000
-2000 -3000 -3000
-3000 -3000 -4000
-3000 -3000 -3000
0 3000 4.54747e-13
0 2000 4.54747e-13
0 3000 -1000
0 2000 -1000
0 1000 4.54747e-13
0 1000 -1000
0 0 4.54747e-13
0 1.13687e-13 -1000
0 -1000 4.54747e-13
0 -1000 -1000
0 -2000 4.54747e-13
0 -2000 -1000
0 -3000 4.54747e-13
0 -3000 -1000
0 3000 -2000
0 2000 -2000
0 1000 -2000
0 2.27374e-13 -2000
0 -1000 -2000
0 -2000 -2000
0 -3000 -2000
0 3000 -3000
0 2000 -3000
0 3000 -4000
0 2000 -4000
0 1000 -3000
0 1000 -4000
0 -1.13687e-13 -3000
0 0 -4000
0 -1000 -3000
0 -1000 -4000
0 -2000 -3000
0 -2000 -4000
0 -3000 -3000
0 -3000 -4000
CELLS 72 648
8  0 1 2 3 4 5 6 7
8  1 8 9 2 5 10 11 6
8  8 12 13 9 10 14 15 11
8  3 2 16 17 7 6 18 19
8  2 9 20 16 6 11 21 18
8  9 13 22 20 11 15 23 21
8  17 16 24 25 19 18 26 27
8  16 20 28 24 18 21 29 26
8  20 22 30 28 21 23 31 29
8  25 24 32 33 27 26 34 35
8  24 28 36 32 26 29 37 34
8  28 30 38 36 29 31 39 37
8  33 32 40 41 35 34 42 43
8  32 36 44 40 34 37 45 42
8  36 38 46 44 37 39 47 45
8  41 40 48 49 43 42 50 51
8  40 44 52 48 42 45 53 50
8  44 46 54 52 45 47 55 53
8  4 5 6 7 56 57 58 59
8  5 10 11 6 57 60 61 58
8  10 14 15 11 60 62 63 61
8  7 6 18 19 59 58 64 65
8  6 11 21 18 58 61 66 64
8  11 15 23 21 61 63 67 66
8  19 18 26 27 65 64 68 69
8  18 21 29 26 64 66 70 68
8  21 23 31 29 66 67 71 70
8  27 26 34 35 69 68 72 73
8  26 29 37 34 68 70 74 72
8  29 31 39 37 70 71 75 74
8  35 34 42 43 73 72 76 77
8  34 37 45 42 72 74 78 76
8  37 39 47 45 74 75 79 78
8  43 42 50 51 77 76 80 81
8  42 45 53 50 76 78 82 80
8  45 47 55 53 78 79 83 82
8  84 85 86 87 88 89 90 91
8  85 92 93 86 89 94 95 90
8  87 86 96 97 91 90 98 99
8  86 93 100 96 90 95 101 98
8  97 96 102 103 99 98 104 105
8  96 100 106 102 98 101 107 104
8  103 102 108 109 105 104 110 111
8  102 106 112 108 104 107 113 110
8  109 108 114 115 111 110 116 117
8  108 112 118 114 110 113 119 116
8  115 114 120 121 117 116 122 123
8  114 118 124 120 116 119 125 122
8  88 89 90 91 126 127 128 129
8  89 94 95 90 127 130 131 128
8  91 90 98 99 129 128 132 133
8  90 95 101 98 128 131 134 132
8  99 98 104 105 133 132 135 136
8  98 101 107 104 132 134 137 135
8  105 104 110 111 136 135 138 139
8  104 107 113 110 135 137 140 138
8  111 110 116 117 139 138 141 142
8  110 113 119 116 138 140 143 141
8  117 116 122 123 142 141 144 145
8  116 119 125 122 141 143 146 144
8  126 127 128 129 259 247 248 260
8  127 130 131 128 247 245 246 248
8  129 128 132 133 260 248 250 261
8  128 131 134 132 248 246 249 250
8  133 132 135 136 261 250 252 262
8  132 134 137 135 250 249 251 252
8  136 135 138 139 262 252 254 263
8  135 137 140 138 252 251 253 254
8  139 138 141 142 263 254 256 264
8  138 140 143 141 254 253 255 256
8  142 141 144 145 264 256 258 265
8  141 143 146 144 256 255 257 258
CELL_TYPES 72
12
12
12
12
12
12
12
12
12
12
12
12
12
12
12
12
12
12
12
12
12
12
12
12
12
12
12
12
12
12
12
12
12
12
12
12
12
12
12
12
12
12
12
12
12
12
12
12
12
12
12
12
12
12
12
12
12
12
12
12
12
12
12
12
12
12
12
12
12
12
12
12
CELL_DATA 72
SCALARS total_strain double 6
LOOKUP_TABLE default
2.30038e-05 -8.98364e-06 1.9983e-05 5.78736e-05 1.50459e-05 -1.68722e-05
0.000107653 -2.6495e-05 -3.2364e-05 6.67937e-05 -1.28073e-06 -2.20653e-06
0.000178186 -1.75113e-05 -4.86481e-05 8.9346e-05 -8.40372e-06 -4.67173e-06
2.01028e-06 -4.49472e-06 5.02286e-05 0.000134223 4.74077e-08 -7.42779e-06
4.91565e-05 -2.52166e-06 -2.06874e-05 0.000134479 -1.86971e-06 6.63337e-07
5.61098e-05 1.97307e-06 -1.99122e-05 0.000113851 -9.09596e-06 -1.27052e-06
-1.26482e-05 -9.20776e-07 5.4332e-05 0.000166613 -2.7412e-06 -6.44167e-06
9.72158e-06 5.57908e-07 -9.55336e-06 0.000149984 -4.8237e-06 2.83141e-06
1.10963e-05 1.47869e-06 -4.22301e-06 0.000121834 -7.81811e-06 6.64628e-07
-2.07379e-05 -1.37772e-07 3.29764e-05 0.000165086 -1.66314e-05 -1.414e-05
-1.79493e-05 -2.43867e-06 5.36103e-06 0.000148387 -3.17507e-06 6.30049e-06
-2.13398e-05 -2.3009e-06 7.29559e-06 0.000121455 -7.95303e-06 1.55851e-06
-3.46338e-05 2.77223e-06 3.73405e-05 0.000136449 1.30528e-05 -1.01044e-05
-5.81161e-05 5.51654e-07 1.68943e-05 0.000133219 -4.47471e-06 7.75169e-06
-6.77533e-05 -2.22057e-06 2.32078e-05 0.000112174 -8.99233e-06 3.50272e-06
-5.42986e-05 7.3798e-06 4.33898e-05 5.53486e-05 -1.41487e-05 -1.02243e-05
-0.000122425 2.67598e-05 3.42721e-05 6.00727e-05 3.87008e-07 1.13095e-05
-0.000190484 1.938e-05 5.08777e-05 8.96154e-05 -8.59935e-06 7.41956e-06
3.77081e-05 -9.75858e-06 1.64215e-05 5.46467e-05 1.43438e-05 -8.58329e-06
0.000123397 -3.00939e-05 -3.38227e-05 5.97221e-05 -4.86414e-06 -2.00282e-05
0.000183712 -2.03354e-05 -3.78255e-05 8.91222e-05 -3.98967e-06 -9.85041e-06
1.61437e-05 -3.22328e-06 4.3396e-07 0.000138072 -3.99511e-06 -2.24097e-06
5.33218e-05 -1.33431e-06 -9.46413e-06 0.000130605 -1.09231e-05 -1.31309e-05
6.31744e-05 1.88898e-06 -2.02061e-05 0.000110594 -9.11307e-06 -3.88745e-06
2.03597e-06 9.62123e-07 3.83624e-06 0.000171896 -7.9884e-06 2.33986e-06
1.40146e-05 2.84521e-06 -2.03597e-07 0.000149953 -1.57722e-05 -8.01699e-06
1.77688e-05 1.88309e-06 -7.29048e-06 0.000119351 -1.06552e-05 -1.21389e-06
-1.00644e-05 -1.16257e-06 3.32931e-05 0.000172957 -2.15722e-05 -4.60463e-06
-6.15003e-06 -3.37564e-06 3.24847e-06 0.000150732 -1.40129e-05 -2.80096e-06
-1.41291e-05 -2.21307e-06 3.10463e-06 0.000119069 -1.08901e-05 4.15193e-07
-2.42484e-05 2.57572e-06 3.77071e-05 0.0001378 8.4683e-06 2.67137e-06
-4.52559e-05 1.54004e-07 1.35727e-05 0.000130065 -1.38721e-05 1.80438e-06
-5.95336e-05 -2.42172e-06 1.59882e-05 0.000110115 -8.90697e-06 2.96261e-06
-4.8632e-05 6.78631e-06 4.88738e-05 5.85367e-05 -1.36064e-05 -3.0397e-06
-0.000113718 2.66377e-05 3.42479e-05 6.04681e-05 -1.79128e-06 9.63417e-06
-0.000179515 1.98514e-05 3.35381e-05 8.81778e-05 -4.02672e-06 8.78251e-06
-0.000183712 2.03354e-05 3.78255e-05 8.91222e-05 3.98966e-06 -9.85041e-06
-0.000178186 1.75113e-05 4.86481e-05 8.93461e-05 8.40371e-06 -4.67173e-06
-6.31744e-05 -1.88898e-06 2.02061e-05 0.000110594 9.11306e-06 -3.88745e-06
-5.61098e-05 -1.97307e-06 1.99122e-05 0.000113851 9.09595e-06 -1.27052e-06
-1.77688e-05 -1.88309e-06 7.29048e-06 0.000119351 1.06552e-05 -1.21389e-06
-1.10963e-05 -1.47868e-06 4.22301e-06 0.000121834 7.8181e-06 6.64628e-07
1.41291e-05 2.21307e-06 -3.10463e-06 0.000119069 1.08901e-05 4.15195e-07
2.13398e-05 2.3009e-06 -7.29559e-06 0.000121455 7.95303e-06 1.55851e-06
5.95336e-05 2.42172e-06 -1.59882e-05 0.000110115 8.90697e-06 2.96261e-06
6.77533e-05 2.22057e-06 -2.32078e-05 0.000112174 8.99232e-06 3.50272e-06
0.000179515 -1.98514e-05 -3.35381e-05 8.81778e-05 4.02671e-06 8.78251e-06
0.000190484 -1.938e-05 -5.08777e-05 8.96154e-05 8.59935e-06 7.41956e-06
-0.000123397 3.00939e-05 3.38227e-05 5.97221e-05 4.86414e-06 -2.00282e-05
-0.000107653 2.6495e-05 3.2364e-05 6.67937e-05 1.28073e-06 -2.20654e-06
-5.33218e-05 1.33431e-06 9.46413e-06 0.000130605 1.09231e-05 -1.31309e-05
-4.91565e-05 2.52166e-06 2.06874e-05 0.000134479 1.86971e-06 6.63337e-07
-1.40145e-05 -2.84522e-06 2.03599e-07 0.000149953 1.57722e-05 -8.01699e-06
-9.72157e-06 -5.57904e-07 9.55335e-06 0.000149984 4.8237e-06 2.83141e-06
6.15003e-06 3.37564e-06 -3.24847e-06 0.000150732 1.40129e-05 -2.80096e-06
1.79493e-05 2.43868e-06 -5.36102e-06 0.000148387 3.17507e-06 6.30049e-06
4.52559e-05 -1.54008e-07 -1.35727e-05 0.000130065 1.38721e-05 1.80438e-06
5.81161e-05 -5.51654e-07 -1.68943e-05 0.000133219 4.47471e-06 7.75169e-06
0.000113718 -2.66377e-05 -3.42479e-05 6.04681e-05 1.79128e-06 9.63418e-06
0.000122425 -2.67598e-05 -3.42721e-05 6.00727e-05 -3.87008e-07 1.13095e-05
-3.77081e-05 9.75859e-06 -1.64215e-05 5.46467e-05 -1.43438e-05 -8.5833e-06
-2.30038e-05 8.98364e-06 -1.9983e-05 5.78736e-05 -1.50459e-05 -1.68722e-05
-1.61437e-05 3.22328e-06 -4.33956e-07 0.000138072 3.99511e-06 -2.24097e-06
-2.01028e-06 4.49472e-06 -5.02286e-05 0.000134223 -4.74063e-08 -7.42779e-06
-2.03597e-06 -9.62126e-07 -3.83623e-06 0.000171896 7.9884e-06 2.33986e-06
1.26482e-05 9.2078e-07 -5.4332e-05 0.000166613 2.7412e-06 -6.44167e-06
1.00644e-05 1.16256e-06 -3.32931e-05 0.000172957 2.15722e-05 -4.60463e-06
2.07379e-05 1.37775e-07 -3.29764e-05 0.000165086 1.66314e-05 -1.414e-05
2.42484e-05 -2.57573e-06 -3.77071e-05 0.0001378 -8.46829e-06 2.67137e-06
3.46338e-05 -2.77223e-06 -3.73405e-05 0.000136449 -1.30528e-05 -1.01044e-05
4.8632e-05 -6.78632e-06 -4.88738e-05 5.85367e-05 1.36064e-05 -3.0397e-06
5.42986e-05 -7.3798e-06 -4.33898e-05 5.53486e-05 1.41487e-05 -1.02243e-05
SCALARS stress double 6
LOOKUP_TABLE default
1.88525e+06 445814 1.74931e+06 2.60431e+06 677064 -759251
6.06425e+06 27583.5 -236524 3.00572e+06 -57632.9 -99294
1.08191e+07 2.01266e+06 611511 4.02057e+06 -378167 -210228
1.28407e+06 991342 3.45389e+06 6.04002e+06 2133.35 -334250
2.86073e+06 535211 -282249 6.05156e+06 -84136.8 29850.2
3.4792e+06 1.04305e+06 58217.4 5.12332e+06 -409318 -57173.6
449908 977641 3.46402e+06 7.49758e+06 -123354 -289875
455624 43259.1 -411748 6.74928e+06 -217066 127414
708132 275340 18763.9 5.48255e+06 -351815 29908.2
-630686 296318 1.78645e+06 7.42885e+06 -748413 -636299
-1.18339e+06 -485414 -134427 6.6774e+06 -142878 283522
-1.36892e+06 -512169 -80326.9 5.46547e+06 -357886 70133.1
-1.42155e+06 261722 1.81729e+06 6.14019e+06 587378 -454697
-3.63198e+06 -991928 -256508 5.99484e+06 -201362 348826
-4.21805e+06 -1.26908e+06 -124800 5.04782e+06 -404655 157622
-2.53166e+06 243867 1.86432e+06 2.49069e+06 -636692 -460095
-7.04397e+06 -330643 7412.99 2.70327e+06 17415.4 508929
-1.15774e+07 -2.13355e+06 -716156 4.03269e+06 -386971 333880
2.80614e+06 670139 1.84824e+06 2.4591e+06 645471 -386248
7.03987e+06 132781 -35012.9 2.6875e+06 -218886 -901270
1.14058e+07 2.22368e+06 1.43662e+06 4.0105e+06 -179535 -443268
1.06033e+06 188812 353388 6.21324e+06 -179780 -100843
3.46256e+06 1.00304e+06 637197 5.87724e+06 -491538 -590889
3.96428e+06 1.20644e+06 212157 4.97672e+06 -410088 -174935
262477 214154 343489 7.73532e+06 -359478 105294
1.04706e+06 544439 407242 6.7479e+06 -709749 -360765
1.10863e+06 393775 -19035.6 5.37079e+06 -479484 -54625
98754.9 499338 2.04984e+06 7.78305e+06 -970748 -207208
-433681 -308834 -10748.7 6.78296e+06 -630583 -126043
-966747 -430527 -191230 5.35809e+06 -490055 18683.7
-690316 516769 2.09768e+06 6.201e+06 381073 120212
-2.82474e+06 -781299 -177459 5.85292e+06 -624243 81197.1
-3.82819e+06 -1.25816e+06 -429712 4.95518e+06 -400814 133318
-2.01274e+06 481086 2.37502e+06 2.63415e+06 -612286 -136786
-6.43809e+06 -122102 220355 2.72106e+06 -80607.7 433538
-1.12313e+07 -2.25982e+06 -1.64392e+06 3.968e+06 -181202 395213
-1.14058e+07 -2.22368e+06 -1.43662e+06 4.0105e+06 179535 -443269
-1.08191e+07 -2.01266e+06 -611511 4.02057e+06 378167 -210228
-3.96428e+06 -1.20644e+06 -212157 4.97672e+06 410088 -174935
-3.4792e+06 -1.04305e+06 -58217.7 5.12332e+06 409318 -57173.6
-1.10863e+06 -393775 19035.6 5.37079e+06 479484 -54625
-708132 -275340 -18763.9 5.48255e+06 351815 29908.3
966747 430527 191230 5.35809e+06 490055 18683.8
1.36892e+06 512169 80327.1 5.46547e+06 357886 70133.1
3.82819e+06 1.25816e+06 429713 4.95518e+06 400814 133318
4.21805e+06 1.26908e+06 124801 5.04782e+06 404655 157622
1.12313e+07 2.25982e+06 1.64392e+06 3.968e+06 181202 395213
1.15774e+07 2.13355e+06 716157 4.03269e+06 386971 333880
-7.03987e+06 -132781 35012.6 2.6875e+06 218886 -901270
-6.06425e+06 -27583.3 236524 3.00572e+06 57632.8 -99294.1
-3.46256e+06 -1.00304e+06 -637198 5.87724e+06 491538 -590889
-2.86073e+06 -535211 282249 6.05156e+06 84136.8 29850.2
-1.04706e+06 -544439 -407242 6.7479e+06 709749 -360765
-455624 -43258.7 411748 6.74928e+06 217066 127414
433681 308834 10749.1 6.78296e+06 630583 -126043
1.18339e+06 485414 134427 6.6774e+06 142878 283522
2.82474e+06 781299 177460 5.85292e+06 624243 81197.2
3.63198e+06 991928 256508 5.99484e+06 201362 348826
6.43809e+06 122102 -220354 2.72106e+06 80607.7 433538
7.04397e+06 330643 -7412.54 2.70327e+06 -17415.3 508929
-2.80614e+06 -670139 -1.84824e+06 2.4591e+06 -645471 -386249
-1.88525e+06 -445814 -1.74931e+06 2.60431e+06 -677064 -759251
-1.06033e+06 -188812 -353388 6.21324e+06 179780 -100844
-1.28407e+06 -991342 -3.45389e+06 6.04002e+06 -2133.29 -334250
-262477 -214154 -343489 7.73532e+06 359478 105294
-449908 -977641 -3.46402e+06 7.49758e+06 123354 -289875
-98754.8 -499338 -2.04984e+06 7.78305e+06 970748 -207208
630686 -296318 -1.78645e+06 7.42885e+06 748413 -636299
690316 -516769 -2.09768e+06 6.201e+06 -381073 120212
1.42155e+06 -261722 -1.81729e+06 6.14019e+06 -587378 -454697
2.01274e+06 -481086 -2.37502e+06 2.63415e+06 612286 -136786
2.53166e+06 -243867 -1.86432e+06 2.49069e+06 636692 -460095
