# vtk DataFile Version 2.0
Simplicial Mesh Example
ASCII
DATASET UNSTRUCTURED_GRID
POINTS 280 double
0 3000 4.54747e-13
1000 3000 0
1000 2000 0
0 2000 4.54747e-13
0 3000 -1000
1000 3000 -1000
1000 2000 -1000
0 2000 -1000
2000 3000 0
2000 2000 0
2000 3000 -1000
2000 2000 -1000
3000 3000 0
3000 2000 0
3000 3000 -1000
3000 2000 -1000
1000 1000 0
0 1000 4.54747e-13
1000 1000 -1000
0 1000 -1000
2000 1000 0
2000 1000 -1000
3000 1000 0
3000 1000 -1000
1000 0 0
0 0 4.54747e-13
1000 9.4739e-14 -1000
0 1.13687e-13 -1000
2000 1.13687e-13 0
2000 4.73695e-14 -1000
3000 0 0
3000 0 -1000
1000 -1000 0
0 -1000 4.54747e-13
1000 -1000 -1000
0 -1000 -1000
2000 -1000 0
2000 -1000 -1000
3000 -1000 0
3000 -1000 -1000
1000 -2000 0
0 -2000 4.54747e-13
1000 -2000 -1000
0 -2000 -1000
2000 -2000 0
2000 -2000 -1000
3000 -2000 0
3000 -2000 -1000
1000 -3000 0
0 -3000 4.54747e-13
1000 -3000 -1000
0 -3000 -1000
2000 -3000 0
2000 -3000 -1000
3000 -3000 0
3000 -3000 -1000
0 3000 -2000
1000 3000 -2000
1000 2000 -2000
0 2000 -2000
2000 3000 -2000
2000 2000 -2000
3000 3000 -2000
3000 2000 -2000
1000 1000 -2000
0 1000 -2000
2000 1000 -2000
3000 1000 -2000
1000 2.27374e-13 -2000
0 2.27374e-13 -2000
2000 0 -2000
3000 0 -2000
1000 -1000 -2000
0 -1000 -2000
2000 -1000 -2000
3000 -1000 -2000
1000 -2000 -2000
0 -2000 -2000
2000 -2000 -2000
3000 -2000 -2000
1000 -3000 -2000
0 -3000 -2000
2000 -3000 -2000
3000 -3000 -2000
-3000 3000 -2000
-3000 3000 -1000
-3000 2000 -1000
-3000 2000 -2000
-2000 3000 -2000
-2000 3000 -1000
-2000 2000 -1000
-2000 2000 -2000
-3000 3000 0
-3000 2000 0
-2000 3000 0
-2000 2000 0
-3000 1000 -1000
-3000 1000 -2000
-2000 1000 -1000
-2000 1000 -2000
-3000 1000 0
-2000 1000 0
-3000 0 -1000
-3000 0 -2000
-2000 -9.4739e-15 -1000
-2000 0 -2000
-3000 0 0
-2000 -1.13687e-13 0
-3000 -1000 -1000
-3000 -1000 -2000
-2000 -1000 -1000
-2000 -1000 -2000
-3000 -1000 0
-2000 -1000 0
-3000 -2000 -1000
-3000 -2000 -2000
-2000 -2000 -1000
-2000 -2000 -2000
-3000 -2000 0
-2000 -2000 0
-3000 -3000 -1000
-3000 -3000 -2000
-2000 -3000 -1000
-2000 -3000 -2000
-3000 -3000 0
-2000 -3000 0
-1000 3000 -2000
-1000 3000 -1000
-1000 2000 -1000
-1000 2000 -2000
-1000 3000 0
-1000 2000 0
-1000 1000 -1000
-1000 1000 -2000
-1000 1000 0
-1000 9.4739e-14 -1000
-1000 2.27374e-13 -2000
-1000 0 0
-1000 -1000 -1000
-1000 -1000 -2000
-1000 -1000 0
-1000 -2000 -1000
-1000 -2000 -2000
-1000 -2000 0
-1000 -3000 -1000
-1000 -3000 -2000
-1000 -3000 0
3000 3000 -3000
3000 2000 -3000
2000 3000 -3000
2000 2000 -3000
3000 3000 -4000
3000 2000 -4000
2000 3000 -4000
2000 2000 -4000
3000 1000 -3000
2000 1000 -3000
3000 1000 -4000
2000 1000 -4000
3000 0 -3000
2000 -4.73695e-14 -3000
3000 0 -4000
2000 -1.13687e-13 -4000
3000 -1000 -3000
2000 -1000 -3000
3000 -1000 -4000
2000 -1000 -4000
3000 -2000 -3000
2000 -2000 -3000
3000 -2000 -4000
2000 -2000 -4000
3000 -3000 -3000
2000 -3000 -3000
3000 -3000 -4000
2000 -3000 -4000
1000 3000 -3000
1000 2000 -3000
1000 3000 -4000
1000 2000 -4000
1000 1000 -3000
1000 1000 -4000
1000 1.89478e-14 -3000
1000 0 -4000
1000 -1000 -3000
1000 -1000 -4000
1000 -2000 -3000
1000 -2000 -4000
1000 -3000 -3000
1000 -3000 -4000
0 3000 -3000
0 2000 -3000
0 3000 -4000
0 2000 -4000
0 1000 -3000
0 1000 -4000
0 -1.13687e-13 -3000
0 0 -4000
0 -1000 -3000
0 -1000 -4000
0 -2000 -3000
0 -2000 -4000
0 -3000 -3000
0 -3000 -4000
-1000 3000 -4000
-1000 2000 -4000
-1000 3000 -3000
-1000 2000 -3000
-2000 3000 -4000
-2000 2000 -4000
-2000 3000 -3000
-2000 2000 -3000
-3000 3000 -4000
-3000 2000 -4000
-3000 3000 -3000
-3000 2000 -3000
-1000 1000 -4000
-1000 1000 -3000
-2000 1000 -4000
-2000 1000 -3000
-3000 1000 -4000
-3000 1000 -3000
-1000 0 -4000
-1000 1.89478e-14 -3000
-2000 1.13687e-13 -4000
-2000 9.4739e-15 -3000
-3000 0 -4000
-3000 0 -3000
-1000 -1000 -4000
-1000 -1000 -3000
-2000 -1000 -4000
-2000 -1000 -3000
-3000 -1000 -4000
-3000 -1000 -3000
-1000 -2000 -4000
-1000 -2000 -3000
-2000 -2000 -4000
-2000 -2000 -3000
-3000 -2000 -4000
-3000 -2000 -3000
-1000 -3000 -4000
-1000 -3000 -3000
-2000 -3000 -4000
-2000 -3000 -3000
-3000 -3000 -4000
-3000 -3000 -3000
0 3000 4.54747e-13
0 2000 4.54747e-13
0 3000 -1000
0 2000 -1000
0 1000 4.54747e-13
0 1000 -1000
0 0 4.54747e-13
0 1.13687e-13 -1000
0 -1000 4.54747e-13
0 -1000 -1000
0 -2000 4.54747e-13
0 -2000 -1000
0 -3000 4.54747e-13
0 -3000 -1000
0 3000 -2000
0 2000 -2000
0 1000 -2000
0 2.27374e-13 -2000
0 -1000 -2000
0 -2000 -2000
0 -3000 -2000
0 3000 -3000
0 2000 -3000
0 3000 -4000
0 2000 -4000
0 1000 -3000
0 1000 -4000
0 -1.13687e-13 -3000
0 0 -4000
0 -1000 -3000
0 -1000 -4000
0 -2000 -3000
0 -2000 -4000
0 -3000 -3000
0 -3000 -4000
CELLS 72 648
8  62 147 148 63 60 149 150 61
8  147 151 152 148 149 153 154 150
8  63 148 155 67 61 150 156 66
8  148 152 157 155 150 154 158 156
8  67 155 159 71 66 156 160 70
8  155 157 161 159 156 158 162 160
8  71 159 163 75 70 160 164 74
8  159 161 165 163 160 162 166 164
8  75 163 167 79 74 164 168 78
8  163 165 169 167 164 166 170 168
8  79 167 171 83 78 168 172 82
8  167 169 173 171 168 170 174 172
8  60 149 150 61 57 175 176 58
8  149 153 154 150 175 177 178 176
8  61 150 156 66 58 176 179 64
8  150 154 158 156 176 178 180 179
8  66 156 160 70 64 179 181 68
8  156 158 162 160 179 180 182 181
8  70 160 164 74 68 181 183 72
8  160 162 166 164 181 182 184 183
8  74 164 168 78 72 183 185 76
8  164 166 170 168 183 184 186 185
8  78 168 172 82 76 185 187 80
8  168 170 174 172 185 186 188 187
8  57 175 176 58 56 189 190 59
8  175 177 178 176 189 191 192 190
8  58 176 179 64 59 190 193 65
8  176 178 180 179 190 192 194 193
8  64 179 181 68 65 193 195 69
8  179 180 182 181 193 194 196 195
8  68 181 183 72 69 195 197 73
8  181 182 184 183 195 196 198 197
8  72 183 185 76 73 197 199 77
8  183 184 186 185 197 198 200 199
8  76 185 187 80 77 199 201 81
8  185 186 188 187 199 200 202 201
8  268 203 204 269 266 205 206 267
8  203 207 208 204 205 209 210 206
8  207 211 212 208 209 213 214 210
8  269 204 215 271 267 206 216 270
8  204 208 217 215 206 210 218 216
8  208 212 219 217 210 214 220 218
8  271 215 221 273 270 216 222 272
8  215 217 223 221 216 218 224 222
8  217 219 225 223 218 220 226 224
8  273 221 227 275 272 222 228 274
8  221 223 229 227 222 224 230 228
8  223 225 231 229 224 226 232 230
8  275 227 233 277 274 228 234 276
8  227 229 235 233 228 230 236 234
8  229 231 237 235 230 232 238 236
8  277 233 239 279 276 234 240 278
8  233 235 241 239 234 236 242 240
8  235 237 243 241 236 238 244 242
8  266 205 206 267 259 126 129 260
8  205 209 210 206 126 88 91 129
8  209 213 214 210 88 84 87 91
8  267 206 216 270 260 129 133 261
8  206 210 218 216 129 91 99 133
8  210 214 220 218 91 87 97 99
8  270 216 222 272 261 133 136 262
8  216 218 224 222 133 99 105 136
8  218 220 226 224 99 97 103 105
8  272 222 228 274 262 136 139 263
8  222 224 230 228 136 105 111 139
8  224 226 232 230 105 103 109 111
8  274 228 234 276 263 139 142 264
8  228 230 236 234 139 111 117 142
8  230 232 238 236 111 109 115 117
8  276 234 240 278 264 142 145 265
8  234 236 242 240 142 117 123 145
8  236 238 244 242 117 115 121 123
CELL_TYPES 72
12
12
12
12
12
12
12
12
12
12
12
12
12
12
12
12
12
12
12
12
12
12
12
12
12
12
12
12
12
12
12
12
12
12
12
12
12
12
12
12
12
12
12
12
12
12
12
12
12
12
12
12
12
12
12
12
12
12
12
12
12
12
12
12
12
12
12
12
12
12
12
12
CELL_DATA 72
SCALARS total_strain double 6
LOOKUP_TABLE default
0.000159906 -2.09546e-05 -1.09998e-05 8.30693e-05 2.97283e-07 -1.56088e-05
0.000131161 -1.98409e-05 1.56801e-05 7.86942e-05 -4.52791e-08 -8.16227e-06
5.55762e-05 1.92285e-06 -7.64898e-06 0.000100211 -4.42185e-06 -5.82124e-06
4.42661e-05 2.09994e-07 5.10628e-06 9.29901e-05 -1.95881e-06 -3.07377e-06
1.6286e-05 1.97159e-06 -2.4377e-06 0.000108021 -8.35158e-06 -2.66506e-06
1.27096e-05 1.6086e-06 1.85456e-06 9.74573e-05 -4.64722e-06 -7.58323e-07
-1.12741e-05 -2.1251e-06 2.27454e-06 0.000107947 -8.39109e-06 -1.12386e-06
-1.16069e-05 -1.76619e-06 2.5551e-06 9.74405e-05 -4.70842e-06 -6.5173e-07
-5.01955e-05 -2.45004e-06 7.4842e-06 9.99756e-05 -4.66326e-06 1.74913e-06
-4.30294e-05 -6.89453e-07 -3.98763e-07 9.25977e-05 -2.04493e-06 1.51235e-06
-0.000153616 1.99737e-05 1.0378e-05 8.21713e-05 3.48218e-07 1.14079e-05
-0.000129381 1.8814e-05 -1.05453e-05 7.78103e-05 -1.406e-07 6.18208e-06
0.000106172 -3.10515e-05 -1.32222e-05 4.33036e-05 -1.9324e-05 -4.07161e-05
5.15243e-05 -2.90861e-05 3.72877e-05 4.8474e-05 7.31577e-06 -3.72544e-05
4.1658e-05 -2.85372e-07 -9.34644e-07 0.000108898 -3.84797e-05 -1.09833e-05
3.60497e-05 -2.80714e-06 5.68182e-06 8.86073e-05 -5.94942e-06 -4.11144e-06
8.72608e-06 2.96137e-06 1.37318e-06 0.000124941 -4.31294e-05 -4.53559e-06
7.70904e-06 2.01853e-06 3.00617e-06 9.88509e-05 -9.29476e-06 -1.54688e-06
-9.10289e-06 -3.13923e-06 6.91544e-06 0.000125687 -4.37398e-05 -3.4298e-06
-1.01443e-05 -2.29859e-06 3.91122e-06 9.88955e-05 -9.46098e-06 -1.69177e-07
-4.15484e-05 -6.91175e-07 1.00003e-05 0.000108996 -3.89635e-05 2.29245e-06
-3.83785e-05 1.82231e-06 1.8442e-06 8.87896e-05 -6.14793e-06 2.15767e-06
-0.000104616 2.80863e-05 2.39547e-05 4.47109e-05 -2.05452e-05 2.91076e-05
-5.47424e-05 2.70969e-05 -2.86722e-05 4.8454e-05 7.02277e-06 3.49939e-05
3.85503e-05 -1.00969e-05 -8.38634e-06 0.000105174 -1.7778e-05 -1.45727e-05
2.65446e-06 -9.24526e-06 2.65361e-05 -3.15881e-05 -0.000241646 -5.11567e-05
1.36177e-05 -2.20823e-06 2.05907e-06 0.000189282 -3.3477e-05 -1.03272e-05
1.31843e-05 -3.01713e-06 2.32561e-06 -1.23621e-05 -0.000253395 -2.28996e-06
3.17628e-06 9.89776e-07 1.78095e-06 0.000215803 -3.55738e-05 -3.43171e-07
2.90497e-06 4.09928e-07 1.80418e-06 7.91475e-06 -0.000254695 -7.8911e-07
-7.25521e-06 -1.01412e-06 5.57563e-06 0.000216742 -3.61912e-05 4.00094e-06
-4.93203e-06 -5.32405e-07 2.16479e-06 7.95109e-06 -0.000254783 1.82143e-06
-1.77079e-05 1.75887e-06 6.01397e-06 0.000189454 -3.37055e-05 1.43045e-05
-1.52412e-05 2.51176e-06 2.01781e-06 -1.17367e-05 -0.000253555 3.29854e-06
-4.42969e-05 8.11265e-06 1.86456e-05 0.000108244 -1.90903e-05 1.82918e-05
-5.13779e-06 8.28288e-06 -2.15354e-05 -3.12885e-05 -0.000241793 5.24161e-05
-2.65445e-06 9.24525e-06 -2.65361e-05 -3.15881e-05 0.000241646 -5.11567e-05
-5.15243e-05 2.90861e-05 -3.72877e-05 4.8474e-05 -7.31577e-06 -3.72544e-05
-0.000131161 1.98409e-05 -1.568e-05 7.86942e-05 4.52778e-08 -8.16227e-06
-1.31842e-05 3.01713e-06 -2.32561e-06 -1.23621e-05 0.000253395 -2.28996e-06
-3.60497e-05 2.80713e-06 -5.6818e-06 8.86073e-05 5.94942e-06 -4.11144e-06
-4.42661e-05 -2.09996e-07 -5.10626e-06 9.29901e-05 1.95881e-06 -3.07376e-06
-2.90496e-06 -4.09942e-07 -1.80416e-06 7.91475e-06 0.000254695 -7.89105e-07
-7.70903e-06 -2.01854e-06 -3.00614e-06 9.88509e-05 9.29477e-06 -1.54688e-06
-1.27097e-05 -1.6086e-06 -1.85453e-06 9.74573e-05 4.64722e-06 -7.58323e-07
4.93204e-06 5.32389e-07 -2.16478e-06 7.95109e-06 0.000254783 1.82144e-06
1.01443e-05 2.29858e-06 -3.91119e-06 9.88955e-05 9.46098e-06 -1.69177e-07
1.16069e-05 1.76619e-06 -2.55507e-06 9.74405e-05 4.70842e-06 -6.5173e-07
1.52412e-05 -2.51177e-06 -2.01779e-06 -1.17367e-05 0.000253555 3.29855e-06
3.83785e-05 -1.82232e-06 -1.84416e-06 8.87896e-05 6.14794e-06 2.15767e-06
4.30294e-05 6.89448e-07 3.98796e-07 9.25977e-05 2.04493e-06 1.51235e-06
5.13779e-06 -8.28289e-06 2.15354e-05 -3.12886e-05 0.000241793 5.24161e-05
5.47424e-05 -2.70969e-05 2.86722e-05 4.8454e-05 -7.02277e-06 3.49939e-05
0.000129381 -1.8814e-05 1.05453e-05 7.78103e-05 1.40601e-07 6.18208e-06
-3.85503e-05 1.00969e-05 8.38633e-06 0.000105174 1.7778e-05 -1.45727e-05
-0.000106172 3.10515e-05 1.32222e-05 4.33036e-05 1.9324e-05 -4.07162e-05
-0.000159906 2.09546e-05 1.09998e-05 8.30693e-05 -2.97285e-07 -1.56088e-05
-1.36177e-05 2.20822e-06 -2.05907e-06 0.000189282 3.3477e-05 -1.03272e-05
-4.1658e-05 2.85368e-07 9.34652e-07 0.000108898 3.84797e-05 -1.09833e-05
-5.55762e-05 -1.92285e-06 7.64899e-06 0.000100211 4.42185e-06 -5.82124e-06
-3.17627e-06 -9.89785e-07 -1.78094e-06 0.000215803 3.55738e-05 -3.43175e-07
-8.72608e-06 -2.96138e-06 -1.37316e-06 0.000124941 4.31294e-05 -4.53559e-06
-1.6286e-05 -1.9716e-06 2.43772e-06 0.000108021 8.35158e-06 -2.66505e-06
7.25521e-06 1.01411e-06 -5.57562e-06 0.000216742 3.61912e-05 4.00094e-06
9.10289e-06 3.13922e-06 -6.91542e-06 0.000125687 4.37398e-05 -3.4298e-06
1.12741e-05 2.1251e-06 -2.27452e-06 0.000107947 8.39109e-06 -1.12386e-06
1.77079e-05 -1.75888e-06 -6.01395e-06 0.000189454 3.37055e-05 1.43045e-05
4.15484e-05 6.91166e-07 -1.00003e-05 0.000108996 3.89635e-05 2.29245e-06
5.01955e-05 2.45004e-06 -7.48418e-06 9.99756e-05 4.66326e-06 1.74913e-06
4.42969e-05 -8.11266e-06 -1.86456e-05 0.000108244 1.90903e-05 1.82918e-05
0.000104616 -2.80863e-05 -2.39547e-05 4.47109e-05 2.05452e-05 2.91076e-05
0.000153616 -1.99737e-05 -1.0378e-05 8.21713e-05 -3.48218e-07 1.14079e-05
SCALARS stress double 6
LOOKUP_TABLE default
1.03946e+07 2.25584e+06 2.70381e+06 3.73812e+06 13377.7 -702396
9.07726e+06 2.28217e+06 3.88061e+06 3.54124e+06 -2037.56 -367302
3.74718e+06 1.33278e+06 902046 4.50951e+06 -198983 -261956
3.23153e+06 1.24901e+06 1.46934e+06 4.18455e+06 -88146.5 -138319
1.12836e+06 484218 285800 4.86093e+06 -375821 -119927
976254 476707 487775 4.38558e+06 -209125 -34124.5
-785450 -373746 -175762 4.85761e+06 -377599 -50573.6
-792762 -349929 -155471 4.38482e+06 -211879 -29327.8
-3.38783e+06 -1.23929e+06 -792244 4.4989e+06 -209847 78710.8
-3.03927e+06 -1.13397e+06 -1.12089e+06 4.1669e+06 -92021.7 68055.9
-9.99436e+06 -2.1828e+06 -2.61461e+06 3.69771e+06 15669.8 513355
-8.84997e+06 -2.18118e+06 -3.50235e+06 3.50146e+06 -6327.02 278194
6.32517e+06 150133 952448 1.94866e+06 -869581 -1.83223e+06
3.81174e+06 184271 3.17109e+06 2.18133e+06 329210 -1.67645e+06
2.88556e+06 998108 968891 4.9004e+06 -1.73159e+06 -494248
2.59534e+06 846788 1.22879e+06 3.98733e+06 -267724 -185015
719189 459777 388309 5.62236e+06 -1.94082e+06 -204102
665250 409177 453621 4.44829e+06 -418264 -69609.5
-542797 -274432 178028 5.65593e+06 -1.96829e+06 -154341
-669782 -316727 -37285.9 4.4503e+06 -425744 -7612.94
-2.67566e+06 -837085 -355967 4.90482e+06 -1.75336e+06 103160
-2.59483e+06 -785796 -784811 3.99553e+06 -276657 97095.1
-6.02208e+06 -50484.8 -236407 2.01199e+06 -924533 1.30984e+06
-3.87135e+06 -188581 -2.69819e+06 2.18043e+06 316025 1.57473e+06
2.23644e+06 47319.9 124293 4.73282e+06 -800008 -655771
618084 82597 1.69276e+06 -1.42146e+06 -1.08741e+07 -2.30205e+06
949513 237345 429373 8.51771e+06 -1.50647e+06 -464725
905610 176547 416971 -556295 -1.14028e+07 -103048
291607 193215 228818 9.71112e+06 -1.60082e+06 -15442.7
258700 146424 209165 356164 -1.14613e+07 -35509.9
-393827 -112978 183561 9.75338e+06 -1.6286e+06 180042
-304433 -106449 14924.6 357799 -1.14653e+07 81964.5
-1.04523e+06 -169228 22251.4 8.52543e+06 -1.51675e+06 643703
-953647 -154763 -176990 -528150 -1.141e+07 148434
-2.43183e+06 -73396.9 400585 4.87099e+06 -859066 823133
-690958 -87027.4 -1.42885e+06 -1.40798e+06 -1.08807e+07 2.35872e+06
-618084 -82597 -1.69276e+06 -1.42146e+06 1.08741e+07 -2.30205e+06
-3.81174e+06 -184271 -3.17109e+06 2.18133e+06 -329210 -1.67645e+06
-9.07726e+06 -2.28217e+06 -3.88061e+06 3.54124e+06 2037.5 -367302
-905609 -176547 -416970 -556295 1.14028e+07 -103048
-2.59534e+06 -846788 -1.22879e+06 3.98733e+06 267724 -185015
-3.23153e+06 -1.24901e+06 -1.46934e+06 4.18455e+06 88146.5 -138319
-258700 -146424 -209164 356164 1.14613e+07 -35509.7
-665249 -409177 -453619 4.44829e+06 418264 -69609.5
-976254 -476707 -487774 4.38558e+06 209125 -34124.5
304433 106449 -14923.7 357799 1.14653e+07 81964.9
669783 316727 37287.9 4.4503e+06 425744 -7612.98
792762 349929 155473 4.38482e+06 211879 -29327.8
953648 154762 176991 -528150 1.141e+07 148435
2.59483e+06 785796 784813 3.99553e+06 276657 97095.1
3.03927e+06 1.13397e+06 1.12089e+06 4.1669e+06 92021.7 68055.9
690958 87027.2 1.42885e+06 -1.40798e+06 1.08807e+07 2.35873e+06
3.87135e+06 188581 2.69819e+06 2.18043e+06 -316025 1.57473e+06
8.84997e+06 2.18118e+06 3.50235e+06 3.50146e+06 6327.02 278194
-2.23644e+06 -47319.9 -124294 4.73282e+06 800008 -655771
-6.32517e+06 -150133 -952448 1.94866e+06 869582 -1.83223e+06
-1.03946e+07 -2.25584e+06 -2.70381e+06 3.73812e+06 -13377.8 -702396
-949513 -237345 -429373 8.51771e+06 1.50647e+06 -464725
-2.88556e+06 -998108 -968890 4.9004e+06 1.73159e+06 -494248
-3.74718e+06 -1.33278e+06 -902046 4.50951e+06 198983 -261956
-291607 -193215 -228817 9.71112e+06 1.60082e+06 -15442.9
-719189 -459778 -388308 5.62236e+06 1.94082e+06 -204101
-1.12836e+06 -484218 -285799 4.86093e+06 375821 -119927
393827 112978 -183560 9.75338e+06 1.6286e+06 180042
542797 274432 -178027 5.65593e+06 1.96829e+06 -154341
785450 373746 175763 4.85761e+06 377599 -50573.5
1.04523e+06 169228 -22250.4 8.52543e+06 1.51675e+06 643703
2.67566e+06 837085 355969 4.90482e+06 1.75336e+06 103160
3.38783e+06 1.23929e+06 792246 4.4989e+06 209847 78710.8
2.43183e+06 73396.9 -400584 4.87099e+06 859066 823133
6.02208e+06 50484.7 236408 2.01199e+06 924533 1.30984e+06
9.99436e+06 2.1828e+06 2.61461e+06 3.69771e+06 -15669.8 513355
