# vtk DataFile Version 2.0
Simplicial Mesh Example
ASCII
DATASET UNSTRUCTURED_GRID
POINTS 245 double
0 3000 4.54747e-13
1000 3000 0
1000 2000 0
0 2000 4.54747e-13
0 3000 -1000
1000 3000 -1000
1000 2000 -1000
0 2000 -1000
2000 3000 0
2000 2000 0
2000 3000 -1000
2000 2000 -1000
3000 3000 0
3000 2000 0
3000 3000 -1000
3000 2000 -1000
1000 1000 0
0 1000 4.54747e-13
1000 1000 -1000
0 1000 -1000
2000 1000 0
2000 1000 -1000
3000 1000 0
3000 1000 -1000
1000 0 0
0 0 4.54747e-13
1000 9.4739e-14 -1000
0 1.13687e-13 -1000
2000 1.13687e-13 0
2000 4.73695e-14 -1000
3000 0 0
3000 0 -1000
1000 -1000 0
0 -1000 4.54747e-13
1000 -1000 -1000
0 -1000 -1000
2000 -1000 0
2000 -1000 -1000
3000 -1000 0
3000 -1000 -1000
1000 -2000 0
0 -2000 4.54747e-13
1000 -2000 -1000
0 -2000 -1000
2000 -2000 0
2000 -2000 -1000
3000 -2000 0
3000 -2000 -1000
1000 -3000 0
0 -3000 4.54747e-13
1000 -3000 -1000
0 -3000 -1000
2000 -3000 0
2000 -3000 -1000
3000 -3000 0
3000 -3000 -1000
0 3000 -2000
1000 3000 -2000
1000 2000 -2000
0 2000 -2000
2000 3000 -2000
2000 2000 -2000
3000 3000 -2000
3000 2000 -2000
1000 1000 -2000
0 1000 -2000
2000 1000 -2000
3000 1000 -2000
1000 2.27374e-13 -2000
0 2.27374e-13 -2000
2000 0 -2000
3000 0 -2000
1000 -1000 -2000
0 -1000 -2000
2000 -1000 -2000
3000 -1000 -2000
1000 -2000 -2000
0 -2000 -2000
2000 -2000 -2000
3000 -2000 -2000
1000 -3000 -2000
0 -3000 -2000
2000 -3000 -2000
3000 -3000 -2000
-3000 3000 -2000
-3000 3000 -1000
-3000 2000 -1000
-3000 2000 -2000
-2000 3000 -2000
-2000 3000 -1000
-2000 2000 -1000
-2000 2000 -2000
-3000 3000 0
-3000 2000 0
-2000 3000 0
-2000 2000 0
-3000 1000 -1000
-3000 1000 -2000
-2000 1000 -1000
-2000 1000 -2000
-3000 1000 0
-2000 1000 0
-3000 0 -1000
-3000 0 -2000
-2000 -9.4739e-15 -1000
-2000 0 -2000
-3000 0 0
-2000 -1.13687e-13 0
-3000 -1000 -1000
-3000 -1000 -2000
-2000 -1000 -1000
-2000 -1000 -2000
-3000 -1000 0
-2000 -1000 0
-3000 -2000 -1000
-3000 -2000 -2000
-2000 -2000 -1000
-2000 -2000 -2000
-3000 -2000 0
-2000 -2000 0
-3000 -3000 -1000
-3000 -3000 -2000
-2000 -3000 -1000
-2000 -3000 -2000
-3000 -3000 0
-2000 -3000 0
-1000 3000 -2000
-1000 3000 -1000
-1000 2000 -1000
-1000 2000 -2000
-1000 3000 0
-1000 2000 0
-1000 1000 -1000
-1000 1000 -2000
-1000 1000 0
-1000 9.4739e-14 -1000
-1000 2.27374e-13 -2000
-1000 0 0
-1000 -1000 -1000
-1000 -1000 -2000
-1000 -1000 0
-1000 -2000 -1000
-1000 -2000 -2000
-1000 -2000 0
-1000 -3000 -1000
-1000 -3000 -2000
-1000 -3000 0
3000 3000 -3000
3000 2000 -3000
2000 3000 -3000
2000 2000 -3000
3000 3000 -4000
3000 2000 -4000
2000 3000 -4000
2000 2000 -4000
3000 1000 -3000
2000 1000 -3000
3000 1000 -4000
2000 1000 -4000
3000 0 -3000
2000 -4.73695e-14 -3000
3000 0 -4000
2000 -1.13687e-13 -4000
3000 -1000 -3000
2000 -1000 -3000
3000 -1000 -4000
2000 -1000 -4000
3000 -2000 -3000
2000 -2000 -3000
3000 -2000 -4000
2000 -2000 -4000
3000 -3000 -3000
2000 -3000 -3000
3000 -3000 -4000
2000 -3000 -4000
1000 3000 -3000
1000 2000 -3000
1000 3000 -4000
1000 2000 -4000
1000 1000 -3000
1000 1000 -4000
1000 1.89478e-14 -3000
1000 0 -4000
1000 -1000 -3000
1000 -1000 -4000
1000 -2000 -3000
1000 -2000 -4000
1000 -3000 -3000
1000 -3000 -4000
0 3000 -3000
0 2000 -3000
0 3000 -4000
0 2000 -4000
0 1000 -3000
0 1000 -4000
0 -1.13687e-13 -3000
0 0 -4000
0 -1000 -3000
0 -1000 -4000
0 -2000 -3000
0 -2000 -4000
0 -3000 -3000
0 -3000 -4000
-1000 3000 -4000
-1000 2000 -4000
-1000 3000 -3000
-1000 2000 -3000
-2000 3000 -4000
-2000 2000 -4000
-2000 3000 -3000
-2000 2000 -3000
-3000 3000 -4000
-3000 2000 -4000
-3000 3000 -3000
-3000 2000 -3000
-1000 1000 -4000
-1000 1000 -3000
-2000 1000 -4000
-2000 1000 -3000
-3000 1000 -4000
-3000 1000 -3000
-1000 0 -4000
-1000 1.89478e-14 -3000
-2000 1.13687e-13 -4000
-2000 9.4739e-15 -3000
-3000 0 -4000
-3000 0 -3000
-1000 -1000 -4000
-1000 -1000 -3000
-2000 -1000 -4000
-2000 -1000 -3000
-3000 -1000 -4000
-3000 -1000 -3000
-1000 -2000 -4000
-1000 -2000 -3000
-2000 -2000 -4000
-2000 -2000 -3000
-3000 -2000 -4000
-3000 -2000 -3000
-1000 -3000 -4000
-1000 -3000 -3000
-2000 -3000 -4000
-2000 -3000 -3000
-3000 -3000 -4000
-3000 -3000 -3000
CELLS 72 648
8  0 1 2 3 4 5 6 7
8  1 8 9 2 5 10 11 6
8  8 12 13 9 10 14 15 11
8  3 2 16 17 7 6 18 19
8  2 9 20 16 6 11 21 18
8  9 13 22 20 11 15 23 21
8  17 16 24 25 19 18 26 27
8  16 20 28 24 18 21 29 26
8  20 22 30 28 21 23 31 29
8  25 24 32 33 27 26 34 35
8  24 28 36 32 26 29 37 34
8  28 30 38 36 29 31 39 37
8  33 32 40 41 35 34 42 43
8  32 36 44 40 34 37 45 42
8  36 38 46 44 37 39 47 45
8  41 40 48 49 43 42 50 51
8  40 44 52 48 42 45 53 50
8  44 46 54 52 45 47 55 53
8  4 5 6 7 56 57 58 59
8  5 10 11 6 57 60 61 58
8  10 14 15 11 60 62 63 61
8  7 6 18 19 59 58 64 65
8  6 11 21 18 58 61 66 64
8  11 15 23 21 61 63 67 66
8  19 18 26 27 65 64 68 69
8  18 21 29 26 64 66 70 68
8  21 23 31 29 66 67 71 70
8  27 26 34 35 69 68 72 73
8  26 29 37 34 68 70 74 72
8  29 31 39 37 70 71 75 74
8  35 34 42 43 73 72 76 77
8  34 37 45 42 72 74 78 76
8  37 39 47 45 74 75 79 78
8  43 42 50 51 77 76 80 81
8  42 45 53 50 76 78 82 80
8  45 47 55 53 78 79 83 82
8  84 85 86 87 88 89 90 91
8  85 92 93 86 89 94 95 90
8  87 86 96 97 91 90 98 99
8  86 93 100 96 90 95 101 98
8  97 96 102 103 99 98 104 105
8  96 100 106 102 98 101 107 104
8  103 102 108 109 105 104 110 111
8  102 106 112 108 104 107 113 110
8  109 108 114 115 111 110 116 117
8  108 112 118 114 110 113 119 116
8  115 114 120 121 117 116 122 123
8  114 118 124 120 116 119 125 122
8  88 89 90 91 126 127 128 129
8  89 94 95 90 127 130 131 128
8  91 90 98 99 129 128 132 133
8  90 95 101 98 128 131 134 132
8  99 98 104 105 133 132 135 136
8  98 101 107 104 132 134 137 135
8  105 104 110 111 136 135 138 139
8  104 107 113 110 135 137 140 138
8  111 110 116 117 139 138 141 142
8  110 113 119 116 138 140 143 141
8  117 116 122 123 142 141 144 145
8  116 119 125 122 141 143 146 144
8  126 127 128 129 56 4 7 59
8  127 130 131 128 4 0 3 7
8  129 128 132 133 59 7 19 65
8  128 131 134 132 7 3 17 19
8  133 132 135 136 65 19 27 69
8  132 134 137 135 19 17 25 27
8  136 135 138 139 69 27 35 73
8  135 137 140 138 27 25 33 35
8  139 138 141 142 73 35 43 77
8  138 140 143 141 35 33 41 43
8  142 141 144 145 77 43 51 81
8  141 143 146 144 43 41 49 51
CELL_TYPES 72
12
12
12
12
12
12
12
12
12
12
12
12
12
12
12
12
12
12
12
12
12
12
12
12
12
12
12
12
12
12
12
12
12
12
12
12
12
12
12
12
12
12
12
12
12
12
12
12
12
12
12
12
12
12
12
12
12
12
12
12
12
12
12
12
12
12
12
12
12
12
12
12
CELL_DATA 72
SCALARS total_strain double 6
LOOKUP_TABLE default
3.5202e-05 -7.89086e-06 -9.53107e-06 5.88321e-05 -2.72067e-07 -9.33304e-06
0.000108124 -2.58306e-05 -2.91859e-05 6.47904e-05 -1.58043e-06 -8.60669e-06
0.000178828 -1.79397e-05 -4.6333e-05 8.81461e-05 -1.26326e-05 -4.43621e-06
1.76825e-05 -2.09316e-06 -5.17347e-06 0.000136816 -1.18289e-06 -4.13266e-06
4.69972e-05 1.08684e-06 -1.471e-05 0.000135597 -3.74802e-06 -3.96616e-06
5.784e-05 3.18001e-06 -2.07924e-05 0.000112898 -1.50947e-05 -2.20666e-06
4.67029e-06 7.81636e-07 -1.56432e-06 0.000169044 -1.36047e-06 -1.3663e-06
1.02944e-05 3.27832e-06 -4.53126e-06 0.000153783 -4.11339e-06 -1.29573e-06
1.47389e-05 2.49668e-06 -5.92484e-06 0.000122548 -1.34983e-05 -2.57788e-07
-4.67029e-06 -7.81636e-07 1.56432e-06 0.000169044 -1.36047e-06 1.3663e-06
-1.02944e-05 -3.27832e-06 4.53126e-06 0.000153783 -4.11339e-06 1.29573e-06
-1.47389e-05 -2.49668e-06 5.92484e-06 0.000122548 -1.34983e-05 2.57788e-07
-1.76825e-05 2.09316e-06 5.17347e-06 0.000136816 -1.18289e-06 4.13266e-06
-4.69972e-05 -1.08684e-06 1.471e-05 0.000135597 -3.74802e-06 3.96616e-06
-5.784e-05 -3.18001e-06 2.07924e-05 0.000112898 -1.50947e-05 2.20666e-06
-3.5202e-05 7.89086e-06 9.53107e-06 5.88321e-05 -2.72067e-07 9.33304e-06
-0.000108124 2.58306e-05 2.91859e-05 6.47904e-05 -1.58043e-06 8.60669e-06
-0.000178828 1.79397e-05 4.6333e-05 8.81461e-05 -1.26326e-05 4.43621e-06
3.71418e-05 -8.76533e-06 -8.72151e-06 5.24517e-05 -9.09489e-07 -1.38035e-05
0.000114516 -2.96096e-05 -2.51589e-05 5.99589e-05 -3.90366e-06 -1.10191e-05
0.000191126 -2.08442e-05 -3.57691e-05 9.70543e-05 -7.51734e-06 -4.24376e-06
1.96368e-05 -2.81554e-06 -5.05678e-06 0.000126653 -2.06133e-06 -7.49832e-06
5.30756e-05 -4.10541e-07 -1.43323e-05 0.000129603 -7.31788e-06 -6.299e-06
6.57122e-05 2.405e-06 -2.06076e-05 0.000119833 -1.28762e-05 -2.86866e-06
5.43144e-06 6.1932e-07 -1.65473e-06 0.000158845 -2.47957e-06 -2.40182e-06
1.22869e-05 2.8587e-06 -4.59622e-06 0.000147497 -8.03799e-06 -1.94398e-06
1.75018e-05 2.23938e-06 -6.36759e-06 0.000128758 -1.31118e-05 -7.56553e-07
-5.43144e-06 -6.1932e-07 1.65473e-06 0.000158845 -2.47957e-06 2.40182e-06
-1.22869e-05 -2.8587e-06 4.59622e-06 0.000147497 -8.03799e-06 1.94398e-06
-1.75018e-05 -2.23938e-06 6.36759e-06 0.000128758 -1.31118e-05 7.56554e-07
-1.96368e-05 2.81554e-06 5.05678e-06 0.000126653 -2.06133e-06 7.49832e-06
-5.30756e-05 4.1054e-07 1.43323e-05 0.000129603 -7.31788e-06 6.299e-06
-6.57122e-05 -2.405e-06 2.06076e-05 0.000119833 -1.28762e-05 2.86866e-06
-3.71418e-05 8.76533e-06 8.72151e-06 5.24517e-05 -9.0949e-07 1.38035e-05
-0.000114516 2.96096e-05 2.51589e-05 5.99589e-05 -3.90366e-06 1.10191e-05
-0.000191126 2.08442e-05 3.57691e-05 9.70543e-05 -7.51734e-06 4.24376e-06
-0.000191126 2.08442e-05 3.57691e-05 9.70543e-05 7.51734e-06 -4.24376e-06
-0.000178828 1.79397e-05 4.6333e-05 8.81461e-05 1.26326e-05 -4.43621e-06
-6.57122e-05 -2.405e-06 2.06076e-05 0.000119833 1.28762e-05 -2.86867e-06
-5.784e-05 -3.18001e-06 2.07924e-05 0.000112898 1.50947e-05 -2.20666e-06
-1.75018e-05 -2.23938e-06 6.36759e-06 0.000128758 1.31118e-05 -7.56554e-07
-1.47389e-05 -2.49668e-06 5.92484e-06 0.000122548 1.34983e-05 -2.57788e-07
1.75018e-05 2.23938e-06 -6.36759e-06 0.000128758 1.31118e-05 7.56553e-07
1.47389e-05 2.49668e-06 -5.92484e-06 0.000122548 1.34983e-05 2.57788e-07
6.57122e-05 2.405e-06 -2.06076e-05 0.000119833 1.28762e-05 2.86866e-06
5.784e-05 3.18001e-06 -2.07924e-05 0.000112898 1.50947e-05 2.20666e-06
0.000191126 -2.08442e-05 -3.57691e-05 9.70543e-05 7.51734e-06 4.24376e-06
0.000178828 -1.79397e-05 -4.6333e-05 8.81461e-05 1.26326e-05 4.43621e-06
-0.000114516 2.96096e-05 2.51589e-05 5.99589e-05 3.90366e-06 -1.10191e-05
-0.000108124 2.58306e-05 2.91859e-05 6.47904e-05 1.58043e-06 -8.60669e-06
-5.30756e-05 4.10541e-07 1.43323e-05 0.000129603 7.31788e-06 -6.299e-06
-4.69972e-05 -1.08684e-06 1.471e-05 0.000135597 3.74802e-06 -3.96616e-06
-1.22869e-05 -2.8587e-06 4.59622e-06 0.000147497 8.03799e-06 -1.94398e-06
-1.02944e-05 -3.27832e-06 4.53126e-06 0.000153783 4.11339e-06 -1.29573e-06
1.22869e-05 2.8587e-06 -4.59622e-06 0.000147497 8.03799e-06 1.94398e-06
1.02944e-05 3.27832e-06 -4.53126e-06 0.000153783 4.11339e-06 1.29573e-06
5.30756e-05 -4.1054e-07 -1.43323e-05 0.000129603 7.31788e-06 6.299e-06
4.69972e-05 1.08684e-06 -1.471e-05 0.000135597 3.74802e-06 3.96616e-06
0.000114516 -2.96096e-05 -2.51589e-05 5.99589e-05 3.90366e-06 1.10191e-05
0.000108124 -2.58306e-05 -2.91859e-05 6.47904e-05 1.58043e-06 8.60669e-06
-3.71418e-05 8.76533e-06 8.72151e-06 5.24517e-05 9.0949e-07 -1.38035e-05
-3.5202e-05 7.89086e-06 9.53107e-06 5.88321e-05 2.72067e-07 -9.33304e-06
-1.96368e-05 2.81554e-06 5.05678e-06 0.000126653 2.06133e-06 -7.49832e-06
-1.76825e-05 2.09316e-06 5.17347e-06 0.000136816 1.18289e-06 -4.13266e-06
-5.43144e-06 -6.1932e-07 1.65473e-06 0.000158845 2.47957e-06 -2.40182e-06
-4.67029e-06 -7.81636e-07 1.56432e-06 0.000169044 1.36047e-06 -1.3663e-06
5.43144e-06 6.19321e-07 -1.65473e-06 0.000158845 2.47957e-06 2.40182e-06
4.67029e-06 7.81636e-07 -1.56432e-06 0.000169044 1.36047e-06 1.3663e-06
1.96368e-05 -2.81554e-06 -5.05678e-06 0.000126653 2.06133e-06 7.49832e-06
1.76825e-05 -2.09316e-06 -5.17347e-06 0.000136816 1.18289e-06 4.13266e-06
3.71418e-05 -8.76533e-06 -8.72151e-06 5.24517e-05 9.0949e-07 1.38035e-05
3.5202e-05 -7.89086e-06 -9.53107e-06 5.88321e-05 2.72067e-07 9.33304e-06
SCALARS stress double 6
LOOKUP_TABLE default
2.02859e+06 89413.6 15604.3 2.64744e+06 -12243 -419987
6.19324e+06 165299 14308.6 2.91557e+06 -71119.5 -387301
1.09112e+07 2.05661e+06 778912 3.96658e+06 -568466 -199629
1.05611e+06 166204 27590.5 6.1567e+06 -53229.9 -185970
2.94922e+06 883258 172400 6.10187e+06 -168661 -178477
3.60849e+06 1.14879e+06 70029.9 5.08042e+06 -679263 -99299.6
307353 132364 26795.9 7.607e+06 -61221.2 -61483.3
689287 373561 22130.3 6.92025e+06 -185103 -58307.7
946017 395118 16149.8 5.51467e+06 -607423 -11600.4
-307353 -132364 -26795.9 7.607e+06 -61221.2 61483.3
-689286 -373561 -22130.4 6.92025e+06 -185103 58307.7
-946017 -395118 -16149.8 5.51467e+06 -607423 11600.5
-1.05611e+06 -166204 -27590.5 6.1567e+06 -53229.9 185970
-2.94922e+06 -883259 -172400 6.10187e+06 -168661 178477
-3.60849e+06 -1.14879e+06 -70029.9 5.08042e+06 -679263 99299.6
-2.02859e+06 -89413.6 -15604.4 2.64744e+06 -12243 419987
-6.19324e+06 -165299 -14308.7 2.91557e+06 -71119.5 387301
-1.09112e+07 -2.05661e+06 -778912 3.96658e+06 -568466 199629
2.16275e+06 96933 98905 2.36033e+06 -40927 -621158
6.64688e+06 161248 361529 2.69815e+06 -175665 -495861
1.19635e+07 2.42482e+06 1.7532e+06 4.36744e+06 -338280 -190969
1.17777e+06 167412 66556.4 5.6994e+06 -92759.9 -337424
3.34672e+06 939843 313362 5.83211e+06 -329305 -283455
4.14479e+06 1.29597e+06 260402 5.39247e+06 -579429 -129090
354315 137770 35437.6 7.148e+06 -111581 -108082
816644 392375 56903.9 6.63735e+06 -361710 -87479.3
1.12192e+06 435112 47798.2 5.79413e+06 -590031 -34044.9
-354315 -137770 -35437.5 7.148e+06 -111581 108082
-816643 -392375 -56903.9 6.63735e+06 -361710 87479.3
-1.12192e+06 -435112 -47798.2 5.79413e+06 -590031 34044.9
-1.17777e+06 -167412 -66556.4 5.6994e+06 -92759.9 337424
-3.34672e+06 -939843 -313362 5.83211e+06 -329305 283455
-4.14479e+06 -1.29597e+06 -260402 5.39247e+06 -579429 129090
-2.16275e+06 -96933.1 -98905.1 2.36033e+06 -40927.1 621158
-6.64688e+06 -161248 -361529 2.69815e+06 -175665 495861
-1.19635e+07 -2.42482e+06 -1.7532e+06 4.36744e+06 -338280 190969
-1.19635e+07 -2.42482e+06 -1.7532e+06 4.36744e+06 338280 -190969
-1.09112e+07 -2.05661e+06 -778911 3.96658e+06 568466 -199629
-4.14479e+06 -1.29597e+06 -260402 5.39247e+06 579429 -129090
-3.60849e+06 -1.14879e+06 -70029.8 5.08042e+06 679263 -99299.6
-1.12192e+06 -435112 -47798.3 5.79413e+06 590031 -34044.9
-946017 -395118 -16149.8 5.51467e+06 607423 -11600.5
1.12192e+06 435112 47798.1 5.79413e+06 590031 34044.9
946017 395118 16149.8 5.51467e+06 607423 11600.4
4.14479e+06 1.29597e+06 260402 5.39247e+06 579429 129090
3.60849e+06 1.14879e+06 70029.9 5.08042e+06 679263 99299.6
1.19635e+07 2.42482e+06 1.7532e+06 4.36744e+06 338280 190969
1.09112e+07 2.05661e+06 778912 3.96658e+06 568466 199629
-6.64688e+06 -161248 -361529 2.69815e+06 175665 -495861
-6.19324e+06 -165299 -14308.6 2.91557e+06 71119.5 -387301
-3.34672e+06 -939843 -313362 5.83211e+06 329305 -283455
-2.94922e+06 -883258 -172400 6.10187e+06 168661 -178477
-816644 -392375 -56903.9 6.63735e+06 361710 -87479.3
-689287 -373561 -22130.3 6.92025e+06 185103 -58307.7
816643 392375 56903.8 6.63735e+06 361710 87479.3
689286 373561 22130.4 6.92025e+06 185103 58307.7
3.34672e+06 939843 313362 5.83211e+06 329305 283455
2.94922e+06 883259 172400 6.10187e+06 168661 178477
6.64688e+06 161248 361529 2.69815e+06 175665 495861
6.19324e+06 165299 14308.7 2.91557e+06 71119.5 387301
-2.16275e+06 -96933.2 -98905.2 2.36033e+06 40927.1 -621158
-2.02859e+06 -89413.6 -15604.4 2.64744e+06 12243 -419987
-1.17777e+06 -167412 -66556.4 5.6994e+06 92759.9 -337424
-1.05611e+06 -166204 -27590.5 6.1567e+06 53229.9 -185970
-354315 -137770 -35437.6 7.148e+06 111581 -108082
-307353 -132364 -26795.9 7.607e+06 61221.2 -61483.3
354315 137770 35437.6 7.148e+06 111581 108082
307353 132364 26796 7.607e+06 61221.2 61483.3
1.17777e+06 167412 66556.4 5.6994e+06 92759.9 337424
1.05611e+06 166204 27590.6 6.1567e+06 53229.9 185970
2.16275e+06 96933.1 98905.1 2.36033e+06 40927.1 621158
2.02859e+06 89413.6 15604.4 2.64744e+06 12243 419987
