# vtk DataFile Version 2.0
Simplicial Mesh Example
ASCII
DATASET UNSTRUCTURED_GRID
POINTS 245 double
0 3000 4.54747e-13
1000 3000 0
1000 2000 0
0 2000 4.54747e-13
0 3000 -1000
1000 3000 -1000
1000 2000 -1000
0 2000 -1000
2000 3000 0
2000 2000 0
2000 3000 -1000
2000 2000 -1000
3000 3000 0
3000 2000 0
3000 3000 -1000
3000 2000 -1000
1000 1000 0
0 1000 4.54747e-13
1000 1000 -1000
0 1000 -1000
2000 1000 0
2000 1000 -1000
3000 1000 0
3000 1000 -1000
1000 0 0
0 0 4.54747e-13
1000 9.4739e-14 -1000
0 1.13687e-13 -1000
2000 1.13687e-13 0
2000 4.73695e-14 -1000
3000 0 0
3000 0 -1000
1000 -1000 0
0 -1000 4.54747e-13
1000 -1000 -1000
0 -1000 -1000
2000 -1000 0
2000 -1000 -1000
3000 -1000 0
3000 -1000 -1000
1000 -2000 0
0 -2000 4.54747e-13
1000 -2000 -1000
0 -2000 -1000
2000 -2000 0
2000 -2000 -1000
3000 -2000 0
3000 -2000 -1000
1000 -3000 0
0 -3000 4.54747e-13
1000 -3000 -1000
0 -3000 -1000
2000 -3000 0
2000 -3000 -1000
3000 -3000 0
3000 -3000 -1000
0 3000 -2000
1000 3000 -2000
1000 2000 -2000
0 2000 -2000
2000 3000 -2000
2000 2000 -2000
3000 3000 -2000
3000 2000 -2000
1000 1000 -2000
0 1000 -2000
2000 1000 -2000
3000 1000 -2000
1000 2.27374e-13 -2000
0 2.27374e-13 -2000
2000 0 -2000
3000 0 -2000
1000 -1000 -2000
0 -1000 -2000
2000 -1000 -2000
3000 -1000 -2000
1000 -2000 -2000
0 -2000 -2000
2000 -2000 -2000
3000 -2000 -2000
1000 -3000 -2000
0 -3000 -2000
2000 -3000 -2000
3000 -3000 -2000
-3000 3000 -2000
-3000 3000 -1000
-3000 2000 -1000
-3000 2000 -2000
-2000 3000 -2000
-2000 3000 -1000
-2000 2000 -1000
-2000 2000 -2000
-3000 3000 0
-3000 2000 0
-2000 3000 0
-2000 2000 0
-3000 1000 -1000
-3000 1000 -2000
-2000 1000 -1000
-2000 1000 -2000
-3000 1000 0
-2000 1000 0
-3000 0 -1000
-3000 0 -2000
-2000 -9.4739e-15 -1000
-2000 0 -2000
-3000 0 0
-2000 -1.13687e-13 0
-3000 -1000 -1000
-3000 -1000 -2000
-2000 -1000 -1000
-2000 -1000 -2000
-3000 -1000 0
-2000 -1000 0
-3000 -2000 -1000
-3000 -2000 -2000
-2000 -2000 -1000
-2000 -2000 -2000
-3000 -2000 0
-2000 -2000 0
-3000 -3000 -1000
-3000 -3000 -2000
-2000 -3000 -1000
-2000 -3000 -2000
-3000 -3000 0
-2000 -3000 0
-1000 3000 -2000
-1000 3000 -1000
-1000 2000 -1000
-1000 2000 -2000
-1000 3000 0
-1000 2000 0
-1000 1000 -1000
-1000 1000 -2000
-1000 1000 0
-1000 9.4739e-14 -1000
-1000 2.27374e-13 -2000
-1000 0 0
-1000 -1000 -1000
-1000 -1000 -2000
-1000 -1000 0
-1000 -2000 -1000
-1000 -2000 -2000
-1000 -2000 0
-1000 -3000 -1000
-1000 -3000 -2000
-1000 -3000 0
3000 3000 -3000
3000 2000 -3000
2000 3000 -3000
2000 2000 -3000
3000 3000 -4000
3000 2000 -4000
2000 3000 -4000
2000 2000 -4000
3000 1000 -3000
2000 1000 -3000
3000 1000 -4000
2000 1000 -4000
3000 0 -3000
2000 -4.73695e-14 -3000
3000 0 -4000
2000 -1.13687e-13 -4000
3000 -1000 -3000
2000 -1000 -3000
3000 -1000 -4000
2000 -1000 -4000
3000 -2000 -3000
2000 -2000 -3000
3000 -2000 -4000
2000 -2000 -4000
3000 -3000 -3000
2000 -3000 -3000
3000 -3000 -4000
2000 -3000 -4000
1000 3000 -3000
1000 2000 -3000
1000 3000 -4000
1000 2000 -4000
1000 1000 -3000
1000 1000 -4000
1000 1.89478e-14 -3000
1000 0 -4000
1000 -1000 -3000
1000 -1000 -4000
1000 -2000 -3000
1000 -2000 -4000
1000 -3000 -3000
1000 -3000 -4000
0 3000 -3000
0 2000 -3000
0 3000 -4000
0 2000 -4000
0 1000 -3000
0 1000 -4000
0 -1.13687e-13 -3000
0 0 -4000
0 -1000 -3000
0 -1000 -4000
0 -2000 -3000
0 -2000 -4000
0 -3000 -3000
0 -3000 -4000
-1000 3000 -4000
-1000 2000 -4000
-1000 3000 -3000
-1000 2000 -3000
-2000 3000 -4000
-2000 2000 -4000
-2000 3000 -3000
-2000 2000 -3000
-3000 3000 -4000
-3000 2000 -4000
-3000 3000 -3000
-3000 2000 -3000
-1000 1000 -4000
-1000 1000 -3000
-2000 1000 -4000
-2000 1000 -3000
-3000 1000 -4000
-3000 1000 -3000
-1000 0 -4000
-1000 1.89478e-14 -3000
-2000 1.13687e-13 -4000
-2000 9.4739e-15 -3000
-3000 0 -4000
-3000 0 -3000
-1000 -1000 -4000
-1000 -1000 -3000
-2000 -1000 -4000
-2000 -1000 -3000
-3000 -1000 -4000
-3000 -1000 -3000
-1000 -2000 -4000
-1000 -2000 -3000
-2000 -2000 -4000
-2000 -2000 -3000
-3000 -2000 -4000
-3000 -2000 -3000
-1000 -3000 -4000
-1000 -3000 -3000
-2000 -3000 -4000
-2000 -3000 -3000
-3000 -3000 -4000
-3000 -3000 -3000
CELLS 72 648
8  62 147 148 63 60 149 150 61
8  147 151 152 148 149 153 154 150
8  63 148 155 67 61 150 156 66
8  148 152 157 155 150 154 158 156
8  67 155 159 71 66 156 160 70
8  155 157 161 159 156 158 162 160
8  71 159 163 75 70 160 164 74
8  159 161 165 163 160 162 166 164
8  75 163 167 79 74 164 168 78
8  163 165 169 167 164 166 170 168
8  79 167 171 83 78 168 172 82
8  167 169 173 171 168 170 174 172
8  60 149 150 61 57 175 176 58
8  149 153 154 150 175 177 178 176
8  61 150 156 66 58 176 179 64
8  150 154 158 156 176 178 180 179
8  66 156 160 70 64 179 181 68
8  156 158 162 160 179 180 182 181
8  70 160 164 74 68 181 183 72
8  160 162 166 164 181 182 184 183
8  74 164 168 78 72 183 185 76
8  164 166 170 168 183 184 186 185
8  78 168 172 82 76 185 187 80
8  168 170 174 172 185 186 188 187
8  57 175 176 58 56 189 190 59
8  175 177 178 176 189 191 192 190
8  58 176 179 64 59 190 193 65
8  176 178 180 179 190 192 194 193
8  64 179 181 68 65 193 195 69
8  179 180 182 181 193 194 196 195
8  68 181 183 72 69 195 197 73
8  181 182 184 183 195 196 198 197
8  72 183 185 76 73 197 199 77
8  183 184 186 185 197 198 200 199
8  76 185 187 80 77 199 201 81
8  185 186 188 187 199 200 202 201
8  191 203 204 192 189 205 206 190
8  203 207 208 204 205 209 210 206
8  207 211 212 208 209 213 214 210
8  192 204 215 194 190 206 216 193
8  204 208 217 215 206 210 218 216
8  208 212 219 217 210 214 220 218
8  194 215 221 196 193 216 222 195
8  215 217 223 221 216 218 224 222
8  217 219 225 223 218 220 226 224
8  196 221 227 198 195 222 228 197
8  221 223 229 227 222 224 230 228
8  223 225 231 229 224 226 232 230
8  198 227 233 200 197 228 234 199
8  227 229 235 233 228 230 236 234
8  229 231 237 235 230 232 238 236
8  200 233 239 202 199 234 240 201
8  233 235 241 239 234 236 242 240
8  235 237 243 241 236 238 244 242
8  189 205 206 190 56 126 129 59
8  205 209 210 206 126 88 91 129
8  209 213 214 210 88 84 87 91
8  190 206 216 193 59 129 133 65
8  206 210 218 216 129 91 99 133
8  210 214 220 218 91 87 97 99
8  193 216 222 195 65 133 136 69
8  216 218 224 222 133 99 105 136
8  218 220 226 224 99 97 103 105
8  195 222 228 197 69 136 139 73
8  222 224 230 228 136 105 111 139
8  224 226 232 230 105 103 109 111
8  197 228 234 199 73 139 142 77
8  228 230 236 234 139 111 117 142
8  230 232 238 236 111 109 115 117
8  199 234 240 201 77 142 145 81
8  234 236 242 240 142 117 123 145
8  236 238 244 242 117 115 121 123
CELL_TYPES 72
12
12
12
12
12
12
12
12
12
12
12
12
12
12
12
12
12
12
12
12
12
12
12
12
12
12
12
12
12
12
12
12
12
12
12
12
12
12
12
12
12
12
12
12
12
12
12
12
12
12
12
12
12
12
12
12
12
12
12
12
12
12
12
12
12
12
12
12
12
12
12
12
CELL_DATA 72
SCALARS total_strain double 6
LOOKUP_TABLE default
0.00019224 -2.25498e-05 -2.59476e-05 9.89983e-05 -3.44121e-06 -2.66539e-06
0.000191743 -2.33249e-05 -2.09714e-05 9.9394e-05 -1.00183e-06 -9.0278e-07
6.70182e-05 2.20267e-06 -1.70486e-05 0.0001208 -7.14439e-06 -1.87441e-06
6.68036e-05 2.03687e-06 -1.45386e-05 0.000120823 -2.23454e-06 -6.34628e-07
1.81912e-05 2.25428e-06 -5.7408e-06 0.000129251 -8.05237e-06 -5.89152e-07
1.82034e-05 2.264e-06 -5.10314e-06 0.00012907 -2.64768e-06 -2.0922e-07
-1.81912e-05 -2.25428e-06 5.74079e-06 0.000129251 -8.05237e-06 5.89151e-07
-1.82034e-05 -2.264e-06 5.10314e-06 0.00012907 -2.64768e-06 2.0922e-07
-6.70182e-05 -2.20267e-06 1.70486e-05 0.0001208 -7.14439e-06 1.87441e-06
-6.68036e-05 -2.03687e-06 1.45386e-05 0.000120823 -2.23454e-06 6.34628e-07
-0.00019224 2.25498e-05 2.59476e-05 9.89983e-05 -3.44121e-06 2.66539e-06
-0.000191743 2.33249e-05 2.09714e-05 9.9394e-05 -1.00183e-06 9.0278e-07
0.000115808 -3.20749e-05 -1.88934e-05 6.0836e-05 -2.33581e-06 -6.9904e-06
0.000115577 -3.32241e-05 -1.52962e-05 6.1114e-05 -7.27724e-07 -2.34354e-06
5.4796e-05 -1.08218e-06 -1.21945e-05 0.000129965 -4.97951e-06 -4.58339e-06
5.4968e-05 -1.41684e-06 -1.05257e-05 0.000130422 -1.65874e-06 -1.5898e-06
1.28498e-05 2.78911e-06 -4.12682e-06 0.000146929 -5.7658e-06 -1.51426e-06
1.29291e-05 2.76378e-06 -3.69669e-06 0.000147078 -1.99195e-06 -5.46089e-07
-1.28498e-05 -2.78911e-06 4.12682e-06 0.000146929 -5.7658e-06 1.51426e-06
-1.29291e-05 -2.76378e-06 3.69669e-06 0.000147078 -1.99195e-06 5.46088e-07
-5.4796e-05 1.08218e-06 1.21945e-05 0.000129965 -4.97951e-06 4.58338e-06
-5.4968e-05 1.41684e-06 1.05257e-05 0.000130422 -1.65874e-06 1.5898e-06
-0.000115808 3.20749e-05 1.88934e-05 6.0836e-05 -2.33581e-06 6.99039e-06
-0.000115577 3.32241e-05 1.52962e-05 6.11141e-05 -7.27725e-07 2.34353e-06
3.76356e-05 -9.52507e-06 -6.87575e-06 5.16797e-05 -8.20703e-07 -9.4132e-06
3.75684e-05 -9.89917e-06 -5.59819e-06 5.18384e-05 -2.70405e-07 -3.18431e-06
2.04023e-05 -3.28486e-06 -4.36951e-06 0.00012453 -1.69878e-06 -5.82308e-06
2.05227e-05 -3.45371e-06 -3.82391e-06 0.000124625 -5.97981e-07 -2.07987e-06
5.73071e-06 5.34837e-07 -1.48173e-06 0.000156202 -2.0059e-06 -1.92254e-06
5.7875e-06 4.99785e-07 -1.33817e-06 0.000156056 -7.16577e-07 -7.0567e-07
-5.73071e-06 -5.34836e-07 1.48173e-06 0.000156202 -2.0059e-06 1.92254e-06
-5.78749e-06 -4.99785e-07 1.33818e-06 0.000156056 -7.16577e-07 7.05669e-07
-2.04023e-05 3.28486e-06 4.36951e-06 0.00012453 -1.69878e-06 5.82308e-06
-2.05227e-05 3.45371e-06 3.82391e-06 0.000124625 -5.97981e-07 2.07986e-06
-3.76356e-05 9.52507e-06 6.87575e-06 5.16797e-05 -8.20703e-07 9.4132e-06
-3.75684e-05 9.89917e-06 5.59819e-06 5.18384e-05 -2.70406e-07 3.18431e-06
-3.75684e-05 9.89917e-06 5.59819e-06 5.18384e-05 2.70406e-07 -3.18431e-06
-0.000115577 3.32241e-05 1.52962e-05 6.11141e-05 7.27724e-07 -2.34353e-06
-0.000191743 2.33249e-05 2.09714e-05 9.9394e-05 1.00183e-06 -9.0278e-07
-2.05227e-05 3.45371e-06 3.82391e-06 0.000124625 5.97981e-07 -2.07987e-06
-5.4968e-05 1.41684e-06 1.05257e-05 0.000130422 1.65874e-06 -1.5898e-06
-6.68036e-05 -2.03687e-06 1.45386e-05 0.000120823 2.23454e-06 -6.34628e-07
-5.7875e-06 -4.99785e-07 1.33818e-06 0.000156056 7.16577e-07 -7.0567e-07
-1.29291e-05 -2.76378e-06 3.6967e-06 0.000147078 1.99194e-06 -5.46089e-07
-1.82034e-05 -2.264e-06 5.10314e-06 0.00012907 2.64768e-06 -2.0922e-07
5.78749e-06 4.99785e-07 -1.33817e-06 0.000156056 7.16577e-07 7.05669e-07
1.29291e-05 2.76378e-06 -3.69669e-06 0.000147078 1.99194e-06 5.46088e-07
1.82034e-05 2.264e-06 -5.10314e-06 0.00012907 2.64768e-06 2.09219e-07
2.05227e-05 -3.45371e-06 -3.82391e-06 0.000124625 5.97981e-07 2.07986e-06
5.4968e-05 -1.41684e-06 -1.05257e-05 0.000130422 1.65874e-06 1.5898e-06
6.68036e-05 2.03687e-06 -1.45386e-05 0.000120823 2.23454e-06 6.34628e-07
3.75684e-05 -9.89917e-06 -5.59819e-06 5.18384e-05 2.70406e-07 3.18431e-06
0.000115577 -3.32241e-05 -1.52962e-05 6.1114e-05 7.27724e-07 2.34353e-06
0.000191743 -2.33249e-05 -2.09714e-05 9.9394e-05 1.00183e-06 9.0278e-07
-3.76357e-05 9.52507e-06 6.87575e-06 5.16797e-05 8.20703e-07 -9.4132e-06
-0.000115808 3.20749e-05 1.88934e-05 6.0836e-05 2.33581e-06 -6.9904e-06
-0.00019224 2.25498e-05 2.59476e-05 9.89983e-05 3.44121e-06 -2.66539e-06
-2.04023e-05 3.28485e-06 4.36951e-06 0.00012453 1.69878e-06 -5.82308e-06
-5.4796e-05 1.08218e-06 1.21945e-05 0.000129965 4.97951e-06 -4.58339e-06
-6.70182e-05 -2.20267e-06 1.70486e-05 0.0001208 7.14439e-06 -1.87441e-06
-5.73071e-06 -5.34836e-07 1.48173e-06 0.000156202 2.0059e-06 -1.92254e-06
-1.28498e-05 -2.78911e-06 4.12683e-06 0.000146929 5.7658e-06 -1.51426e-06
-1.81912e-05 -2.25428e-06 5.7408e-06 0.000129251 8.05237e-06 -5.89152e-07
5.73071e-06 5.34837e-07 -1.48173e-06 0.000156202 2.0059e-06 1.92254e-06
1.28498e-05 2.78911e-06 -4.12682e-06 0.000146929 5.7658e-06 1.51426e-06
1.81912e-05 2.25428e-06 -5.74079e-06 0.000129251 8.05237e-06 5.89151e-07
2.04023e-05 -3.28485e-06 -4.36951e-06 0.00012453 1.69878e-06 5.82308e-06
5.4796e-05 -1.08218e-06 -1.21945e-05 0.000129965 4.97951e-06 4.58338e-06
6.70182e-05 2.20267e-06 -1.70486e-05 0.0001208 7.14439e-06 1.87441e-06
3.76356e-05 -9.52507e-06 -6.87575e-06 5.16797e-05 8.20703e-07 9.4132e-06
0.000115808 -3.20749e-05 -1.88934e-05 6.0836e-05 2.33581e-06 6.9904e-06
0.00019224 -2.25498e-05 -2.59476e-05 9.89983e-05 3.44121e-06 2.66539e-06
SCALARS stress double 6
LOOKUP_TABLE default
1.22444e+07 2.57883e+06 2.42593e+06 4.45492e+06 -154855 -119943
1.23146e+07 2.63654e+06 2.74245e+06 4.47273e+06 -45082.5 -40625.1
4.32012e+06 1.40343e+06 537118 5.436e+06 -321498 -84348.4
4.36371e+06 1.44921e+06 703308 5.43702e+06 -100554 -28558.2
1.18622e+06 469060 109282 5.81629e+06 -362357 -26511.8
1.20326e+06 485986 154465 5.80814e+06 -119146 -9414.88
-1.18622e+06 -469060 -109282 5.81629e+06 -362357 26511.8
-1.20326e+06 -485986 -154465 5.80814e+06 -119146 9414.88
-4.32012e+06 -1.40343e+06 -537118 5.436e+06 -321498 84348.3
-4.36371e+06 -1.44921e+06 -703308 5.43702e+06 -100554 28558.2
-1.22444e+07 -2.57883e+06 -2.42593e+06 4.45492e+06 -154855 119942
-1.23146e+07 -2.63654e+06 -2.74245e+06 4.47273e+06 -45082.6 40625.1
6.83236e+06 177623 770791 2.73762e+06 -105111 -314568
6.8774e+06 181340 988096 2.75013e+06 -32747.6 -105459
3.5038e+06 989283 489228 5.84843e+06 -224078 -206252
3.5492e+06 1.01188e+06 601977 5.86898e+06 -74643.5 -71541.2
866041 413312 102094 6.61182e+06 -259461 -68141.7
881716 424276 133554 6.61852e+06 -89637.5 -24574
-866041 -413312 -102094 6.61182e+06 -259461 68141.7
-881716 -424276 -133554 6.61852e+06 -89637.5 24574
-3.5038e+06 -989283 -489228 5.84843e+06 -224078 206252
-3.54919e+06 -1.01188e+06 -601977 5.86898e+06 -74643.5 71541.1
-6.83236e+06 -177623 -770791 2.73762e+06 -105111 314568
-6.8774e+06 -181340 -988096 2.75013e+06 -32747.6 105459
2.22447e+06 102242 221462 2.32559e+06 -36931.6 -423594
2.24235e+06 106314 299858 2.33273e+06 -12168.2 -143294
1.2368e+06 170880 122071 5.60387e+06 -76444.9 -262038
1.25465e+06 175711 159052 5.60813e+06 -26909.1 -93593.9
377478 143663 52917.7 7.02908e+06 -90265.6 -86514.2
384165 146218 63509.8 7.02253e+06 -32246 -31755.1
-377478 -143663 -52917.7 7.02908e+06 -90265.6 86514.2
-384165 -146218 -63509.7 7.02253e+06 -32246 31755.1
-1.2368e+06 -170880 -122071 5.60387e+06 -76444.9 262038
-1.25465e+06 -175711 -159052 5.60813e+06 -26909.2 93593.9
-2.22447e+06 -102242 -221462 2.32559e+06 -36931.6 423594
-2.24235e+06 -106314 -299858 2.33273e+06 -12168.3 143294
-2.24235e+06 -106314 -299858 2.33273e+06 12168.2 -143294
-6.8774e+06 -181340 -988096 2.75013e+06 32747.6 -105459
-1.23146e+07 -2.63654e+06 -2.74245e+06 4.47273e+06 45082.5 -40625.1
-1.25465e+06 -175711 -159052 5.60813e+06 26909.2 -93593.9
-3.5492e+06 -1.01188e+06 -601977 5.86898e+06 74643.5 -71541.2
-4.36371e+06 -1.44921e+06 -703307 5.43702e+06 100554 -28558.3
-384165 -146218 -63509.7 7.02253e+06 32246 -31755.1
-881716 -424276 -133554 6.61852e+06 89637.5 -24574
-1.20326e+06 -485986 -154465 5.80814e+06 119146 -9414.89
384165 146218 63509.8 7.02253e+06 32246 31755.1
881716 424276 133554 6.61852e+06 89637.5 24574
1.20326e+06 485986 154465 5.80814e+06 119146 9414.87
1.25465e+06 175711 159052 5.60813e+06 26909.2 93593.9
3.54919e+06 1.01188e+06 601977 5.86898e+06 74643.5 71541.1
4.36371e+06 1.44921e+06 703308 5.43702e+06 100554 28558.2
2.24235e+06 106314 299858 2.33273e+06 12168.2 143294
6.8774e+06 181340 988096 2.75013e+06 32747.6 105459
1.23146e+07 2.63654e+06 2.74245e+06 4.47273e+06 45082.6 40625.1
-2.22447e+06 -102242 -221462 2.32559e+06 36931.6 -423594
-6.83236e+06 -177623 -770791 2.73762e+06 105111 -314568
-1.22444e+07 -2.57883e+06 -2.42593e+06 4.45492e+06 154855 -119942
-1.2368e+06 -170881 -122071 5.60387e+06 76444.9 -262038
-3.5038e+06 -989283 -489228 5.84843e+06 224078 -206252
-4.32012e+06 -1.40343e+06 -537118 5.436e+06 321497 -84348.4
-377478 -143663 -52917.7 7.02908e+06 90265.6 -86514.2
-866041 -413312 -102094 6.61182e+06 259461 -68141.7
-1.18622e+06 -469060 -109282 5.81629e+06 362357 -26511.8
377478 143663 52917.7 7.02908e+06 90265.6 86514.1
866041 413312 102094 6.61182e+06 259461 68141.7
1.18622e+06 469060 109282 5.81629e+06 362357 26511.8
1.2368e+06 170880 122071 5.60387e+06 76444.9 262038
3.5038e+06 989283 489228 5.84843e+06 224078 206252
4.32012e+06 1.40343e+06 537118 5.436e+06 321498 84348.4
2.22447e+06 102242 221462 2.32559e+06 36931.6 423594
6.83236e+06 177623 770791 2.73762e+06 105111 314568
1.22444e+07 2.57883e+06 2.42593e+06 4.45492e+06 154855 119942
