# vtk DataFile Version 2.0
Simplicial Mesh Example
ASCII
DATASET UNSTRUCTURED_GRID
POINTS 16 double
-1.000000e+00 -1.000000e+00 -1.000000e+00
-1.000000e+00 1.000000e+00 -1.000000e+00
0.000000e+00 -1.000000e+00 -1.000000e+00
0.000000e+00 1.000000e+00 -1.000000e+00
1.000000e+00 -1.000000e+00 -1.000000e+00
1.000000e+00 1.000000e+00 -1.000000e+00
-1.000000e+00 -1.000000e+00 1.000000e+00
-1.000000e+00 1.000000e+00 1.000000e+00
0.000000e+00 -1.000000e+00 1.000000e+00
0.000000e+00 1.000000e+00 1.000000e+00
1.000000e+00 -1.000000e+00 1.000000e+00
1.000000e+00 1.000000e+00 1.000000e+00
0.000000e+00 -1.000000e+00 -1.000000e+00
0.000000e+00 1.000000e+00 -1.000000e+00
0.000000e+00 -1.000000e+00 1.000000e+00
0.000000e+00 1.000000e+00 1.000000e+00
CELLS 2 18
8  0 12 13 1 6 14 15 7
8  2 4 5 3 8 10 11 9
CELL_TYPES 2
12
12
POINT_DATA 16
SCALARS pressure double 1
LOOKUP_TABLE default
2.100000e+00
3.200000e+00
4.300000e+00
5.400000e+00
6.500000e+00
7.600000e+00
8.700000e+00
9.800000e+00
1.000000e+01
1.210000e+01
1.110000e+01
1.310000e+01
1.410000e+01
1.510000e+01
1.610000e+01
1.710000e+01
SCALARS pressure2 double 1
LOOKUP_TABLE default
4.200000e+00
6.400000e+00
8.600000e+00
1.080000e+01
1.300000e+01
1.520000e+01
1.740000e+01
1.960000e+01
2.000000e+01
2.420000e+01
2.220000e+01
2.620000e+01
2.820000e+01
3.020000e+01
3.220000e+01
3.420000e+01
VECTORS displacement double
1.100000e+00 2.200000e+00 3.300000e+00
4.400000e+00 5.500000e+00 6.600000e+00
7.700000e+00 8.800000e+00 9.900000e+00
1.010000e+01 1.120000e+01 1.230000e+01
1.200000e+00 2.300000e+00 3.400000e+00
4.500000e+00 5.600000e+00 6.700000e+00
7.800000e+00 8.900000e+00 9.000000e+00
1.020000e+01 1.130000e+01 1.240000e+01
1.300000e+00 2.400000e+00 3.500000e+00
4.600000e+00 5.700000e+00 6.800000e+00
7.900000e+00 8.000000e+00 9.100000e+00
1.020000e+01 1.130000e+01 1.240000e+01
1.350000e+01 1.460000e+01 1.570000e+01
1.680000e+01 1.790000e+01 1.810000e+01
1.920000e+01 2.030000e+01 2.140000e+01
2.250000e+01 2.360000e+01 2.470000e+01
VECTORS displacement2 double
2.200000e+00 4.400000e+00 6.600000e+00
8.800000e+00 1.100000e+01 1.320000e+01
1.540000e+01 1.760000e+01 1.980000e+01
2.020000e+01 2.240000e+01 2.460000e+01
2.400000e+00 4.600000e+00 6.800000e+00
9.000000e+00 1.120000e+01 1.340000e+01
1.560000e+01 1.780000e+01 1.800000e+01
2.040000e+01 2.260000e+01 2.480000e+01
2.600000e+00 4.800000e+00 7.000000e+00
9.200000e+00 1.140000e+01 1.360000e+01
1.580000e+01 1.600000e+01 1.820000e+01
2.040000e+01 2.260000e+01 2.480000e+01
2.700000e+01 2.920000e+01 3.140000e+01
3.360000e+01 3.580000e+01 3.620000e+01
3.840000e+01 4.060000e+01 4.280000e+01
4.500000e+01 4.720000e+01 4.940000e+01
SCALARS stress double 6
LOOKUP_TABLE default
1.100000e+00 1.200000e+00 1.300000e+00 1.400000e+00 1.500000e+00 1.600000e+00
2.100000e+00 2.200000e+00 2.300000e+00 2.400000e+00 2.500000e+00 2.600000e+00
3.100000e+00 3.200000e+00 3.300000e+00 3.400000e+00 3.500000e+00 3.600000e+00
4.100000e+00 4.200000e+00 4.300000e+00 4.400000e+00 4.500000e+00 4.600000e+00
5.100000e+00 5.200000e+00 5.300000e+00 5.400000e+00 5.500000e+00 5.600000e+00
6.100000e+00 6.200000e+00 6.300000e+00 6.400000e+00 6.500000e+00 6.600000e+00
7.100000e+00 7.200000e+00 7.300000e+00 7.400000e+00 7.500000e+00 7.600000e+00
8.100000e+00 8.200000e+00 8.300000e+00 8.400000e+00 8.500000e+00 8.600000e+00
9.100000e+00 9.200000e+00 9.300000e+00 9.400000e+00 9.500000e+00 9.600000e+00
1.010000e+01 1.020000e+01 1.030000e+01 1.040000e+01 1.050000e+01 1.060000e+01
1.110000e+01 1.120000e+01 1.130000e+01 1.140000e+01 1.150000e+01 1.160000e+01
1.210000e+01 1.220000e+01 1.230000e+01 1.240000e+01 1.250000e+01 1.260000e+01
1.310000e+01 1.320000e+01 1.330000e+01 1.340000e+01 1.350000e+01 1.360000e+01
1.410000e+01 1.420000e+01 1.430000e+01 1.440000e+01 1.450000e+01 1.460000e+01
1.510000e+01 1.520000e+01 1.530000e+01 1.540000e+01 1.550000e+01 1.560000e+01
1.610000e+01 1.620000e+01 1.630000e+01 1.640000e+01 1.650000e+01 1.660000e+01
SCALARS stress2 double 6
LOOKUP_TABLE default
2.200000e+00 2.400000e+00 2.600000e+00 2.800000e+00 3.000000e+00 3.200000e+00
4.200000e+00 4.400000e+00 4.600000e+00 4.800000e+00 5.000000e+00 5.200000e+00
6.200000e+00 6.400000e+00 6.600000e+00 6.800000e+00 7.000000e+00 7.200000e+00
8.200000e+00 8.400000e+00 8.600000e+00 8.800000e+00 9.000000e+00 9.200000e+00
1.020000e+01 1.040000e+01 1.060000e+01 1.080000e+01 1.100000e+01 1.120000e+01
1.220000e+01 1.240000e+01 1.260000e+01 1.280000e+01 1.300000e+01 1.320000e+01
1.420000e+01 1.440000e+01 1.460000e+01 1.480000e+01 1.500000e+01 1.520000e+01
1.620000e+01 1.640000e+01 1.660000e+01 1.680000e+01 1.700000e+01 1.720000e+01
1.820000e+01 1.840000e+01 1.860000e+01 1.880000e+01 1.900000e+01 1.920000e+01
2.020000e+01 2.040000e+01 2.060000e+01 2.080000e+01 2.100000e+01 2.120000e+01
2.220000e+01 2.240000e+01 2.260000e+01 2.280000e+01 2.300000e+01 2.320000e+01
2.420000e+01 2.440000e+01 2.460000e+01 2.480000e+01 2.500000e+01 2.520000e+01
2.620000e+01 2.640000e+01 2.660000e+01 2.680000e+01 2.700000e+01 2.720000e+01
2.820000e+01 2.840000e+01 2.860000e+01 2.880000e+01 2.900000e+01 2.920000e+01
3.020000e+01 3.040000e+01 3.060000e+01 3.080000e+01 3.100000e+01 3.120000e+01
3.220000e+01 3.240000e+01 3.260000e+01 3.280000e+01 3.300000e+01 3.320000e+01
SCALARS other double 2
LOOKUP_TABLE default
1.200000e+00 2.300000e+00
3.400000e+00 4.500000e+00
5.600000e+00 6.700000e+00
7.800000e+00 8.900000e+00
1.300000e+00 2.400000e+00
3.500000e+00 4.600000e+00
5.700000e+00 6.800000e+00
7.900000e+00 8.000000e+00
1.300000e+00 2.400000e+00
3.500000e+00 4.600000e+00
5.700000e+00 6.800000e+00
8.000000e+00 1.400000e+00
2.500000e+00 3.600000e+00
4.800000e+00 1.500000e+00
2.600000e+00 3.700000e+00
4.800000e+00 5.900000e+00
SCALARS other2 double 2
LOOKUP_TABLE default
2.400000e+00 4.600000e+00
6.800000e+00 9.000000e+00
1.120000e+01 1.340000e+01
1.560000e+01 1.780000e+01
2.600000e+00 4.800000e+00
7.000000e+00 9.200000e+00
1.140000e+01 1.360000e+01
1.580000e+01 1.600000e+01
2.600000e+00 4.800000e+00
7.000000e+00 9.200000e+00
1.140000e+01 1.360000e+01
1.600000e+01 2.800000e+00
5.000000e+00 7.200000e+00
9.600000e+00 3.000000e+00
5.200000e+00 7.400000e+00
9.600000e+00 1.180000e+01
