# vtk DataFile Version 2.0
Simplicial Mesh Example
ASCII
DATASET UNSTRUCTURED_GRID
POINTS 16 double
-1.000000e+00 -1.000000e+00 -1.000000e+00
-1.000000e+00 1.000000e+00 -1.000000e+00
0.000000e+00 -1.000000e+00 -1.000000e+00
0.000000e+00 1.000000e+00 -1.000000e+00
1.000000e+00 -1.000000e+00 -1.000000e+00
1.000000e+00 1.000000e+00 -1.000000e+00
-1.000000e+00 -1.000000e+00 1.000000e+00
-1.000000e+00 1.000000e+00 1.000000e+00
0.000000e+00 -1.000000e+00 1.000000e+00
0.000000e+00 1.000000e+00 1.000000e+00
1.000000e+00 -1.000000e+00 1.000000e+00
1.000000e+00 1.000000e+00 1.000000e+00
0.000000e+00 -1.000000e+00 -1.000000e+00
0.000000e+00 1.000000e+00 -1.000000e+00
0.000000e+00 -1.000000e+00 1.000000e+00
0.000000e+00 1.000000e+00 1.000000e+00
CELLS 2 18
8  0 12 13 1 6 14 15 7
8  2 4 5 3 8 10 11 9
CELL_TYPES 2
12
12
CELL_DATA 2
SCALARS pressure double 1
LOOKUP_TABLE default
2.100000e+00
3.200000e+00
VECTORS traction double
1.100000e+00 2.200000e+00 3.300000e+00
4.400000e+00 5.500000e+00 6.600000e+00
SCALARS stress double 6
LOOKUP_TABLE default
1.200000e+00 2.300000e+00 3.400000e+00 4.500000e+00 5.600000e+00 6.700000e+00
1.100000e+00 2.200000e+00 3.300000e+00 4.400000e+00 5.500000e+00 6.600000e+00
SCALARS other double 2
LOOKUP_TABLE default
1.200000e+00 2.300000e+00
1.100000e+00 2.200000e+00
