# vtk DataFile Version 2.0
Simplicial Mesh Example
ASCII
DATASET UNSTRUCTURED_GRID
POINTS 4 double
-1.000000e+00 0.0 0.0
0.000000e+00 0.0 0.0
1.000000e+00 0.0 0.0
0.000000e+00 0.0 0.0
CELLS 1 3
2  0 3
CELL_TYPES 1
3
POINT_DATA 4
SCALARS pressure double 1
LOOKUP_TABLE default
1.100000e+00
2.200000e+00
3.300000e+00
4.400000e+00
SCALARS pressure2 double 1
LOOKUP_TABLE default
2.200000e+00
4.400000e+00
6.600000e+00
8.800000e+00
VECTORS displacement double
2.100000e+00 0.0 0.0
3.200000e+00 0.0 0.0
4.300000e+00 0.0 0.0
5.400000e+00 0.0 0.0
VECTORS displacement2 double
4.200000e+00 0.0 0.0
6.400000e+00 0.0 0.0
8.600000e+00 0.0 0.0
1.080000e+01 0.0 0.0
SCALARS stress double 1
LOOKUP_TABLE default
3.100000e+00
4.200000e+00
5.300000e+00
6.400000e+00
SCALARS stress2 double 1
LOOKUP_TABLE default
6.200000e+00
8.400000e+00
1.060000e+01
1.280000e+01
SCALARS other double 2
LOOKUP_TABLE default
1.200000e+00 2.300000e+00
3.400000e+00 4.500000e+00
5.600000e+00 6.700000e+00
7.800000e+00 8.900000e+00
SCALARS other2 double 2
LOOKUP_TABLE default
2.400000e+00 4.600000e+00
6.800000e+00 9.000000e+00
1.120000e+01 1.340000e+01
1.560000e+01 1.780000e+01
