# vtk DataFile Version 2.0
Simplicial Mesh Example
ASCII
DATASET UNSTRUCTURED_GRID
POINTS 3 double
0.000000e+00 -1.000000e+00 0.000000e+00
0.000000e+00 0.000000e+00 1.000000e+00
0.000000e+00 1.000000e+00 0.000000e+00
CELLS 1 4
3  2 1 0
CELL_TYPES 1
5
POINT_DATA 3
SCALARS pressure double 1
LOOKUP_TABLE default
2.100000e+00
3.200000e+00
4.300000e+00
VECTORS displacement double
1.100000e+00 2.200000e+00 3.300000e+00
4.400000e+00 5.500000e+00 6.600000e+00
7.700000e+00 8.800000e+00 9.900000e+00
SCALARS stress double 6
LOOKUP_TABLE default
1.100000e+00 1.200000e+00 1.300000e+00 1.400000e+00 1.500000e+00 1.600000e+00
2.100000e+00 2.200000e+00 2.300000e+00 2.400000e+00 2.500000e+00 2.600000e+00
3.100000e+00 3.200000e+00 3.300000e+00 3.400000e+00 3.500000e+00 3.600000e+00
SCALARS other double 2
LOOKUP_TABLE default
1.200000e+00 2.300000e+00
3.400000e+00 4.500000e+00
5.600000e+00 6.700000e+00
