# vtk DataFile Version 2.0
Simplicial Mesh Example
ASCII
DATASET UNSTRUCTURED_GRID
POINTS 4 double
-3.333333e-01 0.000000e+00 3.333333e-01
1.000000e-08 0.000000e+00 3.333333e-01
1.000000e-08 0.000000e+00 1.000000e-08
0.000000e+00 -1.000000e+00 1.000000e-08
CELLS 4 8
1  0
1  1
1  2
1  3
CELL_TYPES 4
1
1
1
1
POINT_DATA 4
SCALARS pressure double 1
LOOKUP_TABLE default
6.500000e+00
4.300000e+00
4.300000e+00
7.600000e+00
VECTORS displacement double
1.346667e+01 1.423333e+01 1.533333e+01
7.366667e+00 8.466667e+00 9.566667e+00
7.200000e+00 8.300000e+00 9.400000e+00
1.660000e+01 1.770000e+01 1.880000e+01
SCALARS stress double 6
LOOKUP_TABLE default
5.100000e+00 5.200000e+00 5.300000e+00 5.400000e+00 5.500000e+00 5.600000e+00
3.100000e+00 3.200000e+00 3.300000e+00 3.400000e+00 3.500000e+00 3.600000e+00
3.100000e+00 3.200000e+00 3.300000e+00 3.400000e+00 3.500000e+00 3.600000e+00
6.100000e+00 6.200000e+00 6.300000e+00 6.400000e+00 6.500000e+00 6.600000e+00
SCALARS other double 2
LOOKUP_TABLE default
9.333333e+00 1.043333e+01
5.600000e+00 6.700000e+00
5.600000e+00 6.700000e+00
1.120000e+01 1.230000e+01
