# vtk DataFile Version 2.0
Simplicial Mesh Example
ASCII
DATASET UNSTRUCTURED_GRID
POINTS 6 double
-1.000000e+00 0.000000e+00 0.0
0.000000e+00 -1.000000e+00 0.0
0.000000e+00 1.000000e+00 0.0
1.000000e+00 0.000000e+00 0.0
0.000000e+00 -1.000000e+00 0.0
0.000000e+00 1.000000e+00 0.0
CELLS 2 8
3  0 4 5
3  1 3 2
CELL_TYPES 2
5
5
POINT_DATA 6
SCALARS pressure double 1
LOOKUP_TABLE default
2.100000e+00
3.200000e+00
4.300000e+00
5.400000e+00
6.500000e+00
7.600000e+00
SCALARS pressure2 double 1
LOOKUP_TABLE default
4.200000e+00
6.400000e+00
8.600000e+00
1.080000e+01
1.300000e+01
1.520000e+01
VECTORS displacement double
1.100000e+00 2.200000e+00 0.0
3.300000e+00 4.400000e+00 0.0
5.500000e+00 6.600000e+00 0.0
7.700000e+00 8.800000e+00 0.0
9.900000e+00 1.000000e+01 0.0
1.110000e+01 1.220000e+01 0.0
VECTORS displacement2 double
2.200000e+00 4.400000e+00 0.0
6.600000e+00 8.800000e+00 0.0
1.100000e+01 1.320000e+01 0.0
1.540000e+01 1.760000e+01 0.0
1.980000e+01 2.000000e+01 0.0
2.220000e+01 2.440000e+01 0.0
VECTORS stress double
1.100000e+00 1.200000e+00 1.300000e+00
2.100000e+00 2.200000e+00 2.300000e+00
3.100000e+00 3.200000e+00 3.300000e+00
4.100000e+00 4.200000e+00 4.300000e+00
5.100000e+00 5.200000e+00 5.300000e+00
6.100000e+00 6.200000e+00 6.300000e+00
VECTORS stress2 double
2.200000e+00 2.400000e+00 2.600000e+00
4.200000e+00 4.400000e+00 4.600000e+00
6.200000e+00 6.400000e+00 6.600000e+00
8.200000e+00 8.400000e+00 8.600000e+00
1.020000e+01 1.040000e+01 1.060000e+01
1.220000e+01 1.240000e+01 1.260000e+01
SCALARS other double 2
LOOKUP_TABLE default
1.200000e+00 2.300000e+00
3.400000e+00 4.500000e+00
5.600000e+00 6.700000e+00
7.800000e+00 8.900000e+00
9.000000e+00 1.010000e+01
1.120000e+01 1.230000e+01
SCALARS other2 double 2
LOOKUP_TABLE default
2.400000e+00 4.600000e+00
6.800000e+00 9.000000e+00
1.120000e+01 1.340000e+01
1.560000e+01 1.780000e+01
1.800000e+01 2.020000e+01
2.240000e+01 2.460000e+01
